<?xml version="1.0"?>
<VTKFile type="UnstructuredGrid"  byte_order="LittleEndian">
<UnstructuredGrid>
<Piece NumberOfPoints="687" NumberOfCells="3545">
<Points>
<DataArray type="Float32" NumberOfComponents="3" format="ascii">
0.140000 -0.140000 0.000000 0.140000 0.160000 0.000000 0.140000 0.160000 0.300000 0.140000 -0.140000 0.300000 -0.160000 0.160000 0.000000 -0.160000 0.160000 0.300000 -0.160000 -0.140000 0.000000 -0.160000 -0.140000 0.300000 0.140000 -0.102500 0.000000 0.140000 -0.065000 0.000000 0.140000 -0.027500 0.000000 0.140000 0.010000 0.000000 0.140000 0.047500 0.000000 0.140000 0.085000 0.000000 0.140000 0.122500 0.000000 0.140000 0.160000 0.262500 0.140000 0.160000 0.225000 0.140000 0.160000 0.187500 0.140000 0.160000 0.150000 0.140000 0.160000 0.112500 0.140000 0.160000 0.075000 0.140000 0.160000 0.037500 0.140000 -0.102500 0.300000 0.140000 -0.065000 0.300000 0.140000 -0.027500 0.300000 0.140000 0.010000 0.300000 0.140000 0.047500 0.300000 0.140000 0.085000 0.300000 0.140000 0.122500 0.300000 0.140000 -0.140000 0.262500 0.140000 -0.140000 0.225000 0.140000 -0.140000 0.187500 0.140000 -0.140000 0.150000 0.140000 -0.140000 0.112500 0.140000 -0.140000 0.075000 0.140000 -0.140000 0.037500 0.102500 0.160000 0.000000 0.065000 0.160000 0.000000 0.027500 0.160000 0.000000 -0.010000 0.160000 0.000000 -0.047500 0.160000 0.000000 -0.085000 0.160000 0.000000 -0.122500 0.160000 0.000000 -0.160000 0.160000 0.262500 -0.160000 0.160000 0.225000 -0.160000 0.160000 0.187500 -0.160000 0.160000 0.150000 -0.160000 0.160000 0.112500 -0.160000 0.160000 0.075000 -0.160000 0.160000 0.037500 0.102500 0.160000 0.300000 0.065000 0.160000 0.300000 0.027500 0.160000 0.300000 -0.010000 0.160000 0.300000 -0.047500 0.160000 0.300000 -0.085000 0.160000 0.300000 -0.122500 0.160000 0.300000 -0.160000 0.122500 0.000000 -0.160000 0.085000 0.000000 -0.160000 0.047500 0.000000 -0.160000 0.010000 0.000000 -0.160000 -0.027500 0.000000 -0.160000 -0.065000 0.000000 -0.160000 -0.102500 0.000000 -0.160000 -0.140000 0.262500 -0.160000 -0.140000 0.225000 -0.160000 -0.140000 0.187500 -0.160000 -0.140000 0.150000 -0.160000 -0.140000 0.112500 -0.160000 -0.140000 0.075000 -0.160000 -0.140000 0.037500 -0.160000 0.122500 0.300000 -0.160000 0.085000 0.300000 -0.160000 0.047500 0.300000 -0.160000 0.010000 0.300000 -0.160000 -0.027500 0.300000 -0.160000 -0.065000 0.300000 -0.160000 -0.102500 0.300000 -0.122500 -0.140000 0.000000 -0.085000 -0.140000 0.000000 -0.047500 -0.140000 0.000000 -0.010000 -0.140000 0.000000 0.027500 -0.140000 0.000000 0.065000 -0.140000 0.000000 0.102500 -0.140000 0.000000 -0.122500 -0.140000 0.300000 -0.085000 -0.140000 0.300000 -0.047500 -0.140000 0.300000 -0.010000 -0.140000 0.300000 0.027500 -0.140000 0.300000 0.065000 -0.140000 0.300000 0.102500 -0.140000 0.300000 0.140000 0.028750 0.032476 0.140000 0.028750 0.267524 0.140000 -0.106783 0.130772 0.140000 0.126680 0.130905 0.140000 -0.104554 0.202023 0.140000 0.125068 0.201128 0.140000 -0.047043 0.032111 0.140000 -0.047287 0.264322 0.140000 0.102300 0.031639 0.140000 -0.107154 0.061003 0.140000 0.103750 0.267524 0.140000 -0.008893 0.032421 0.140000 0.009965 0.064949 0.140000 0.047494 0.064951 0.140000 0.028743 0.097427 0.140000 -0.009318 0.097090 0.140000 0.009904 0.129847 0.140000 0.047724 0.130034 0.140000 0.029013 0.162531 0.140000 -0.008722 0.162396 0.140000 0.010064 0.194911 0.140000 0.047724 0.194997 0.140000 -0.027036 0.194609 0.140000 -0.046168 0.162341 0.140000 -0.008608 0.226204 0.140000 -0.063821 0.196509 0.140000 -0.083567 0.164287 0.140000 -0.077857 0.231922 0.140000 -0.065471 0.129963 0.140000 -0.086678 0.096969 0.140000 -0.049555 0.095365 0.140000 -0.069324 0.064058 0.140000 0.066285 0.097449 0.140000 0.086229 0.130345 0.140000 0.103750 0.097428 0.140000 0.104930 0.164034 0.140000 0.067526 0.163140 0.140000 0.086621 0.195602 0.140000 0.066232 0.226124 0.140000 0.028837 0.226293 0.140000 0.084763 0.064816 0.140000 0.125463 0.061083 0.140000 -0.008797 0.268474 0.140000 0.066250 0.267524 0.140000 0.065968 0.032314 0.140000 -0.028222 0.129500 0.140000 -0.028311 0.064654 0.140000 -0.083750 0.268288 0.140000 0.129154 0.242113 0.140000 -0.082660 0.030848 0.140000 -0.110218 0.243750 0.140000 -0.042458 0.226572 0.140000 0.099506 0.226094 0.140000 -0.114639 0.168750 0.140000 0.134958 0.094175 0.140000 0.135529 0.168750 0.140000 -0.116799 0.093750 0.140000 0.132548 0.272548 0.140000 -0.112548 0.027452 0.140000 0.132548 0.027452 0.140000 -0.112772 0.272772 0.140000 0.010030 0.247304 0.140000 0.047500 0.247556 0.140000 -0.025398 0.247461 0.140000 0.081956 0.247948 -0.031446 0.160000 0.033727 0.107524 0.160000 0.168750 -0.127524 0.160000 0.168750 -0.031446 0.160000 0.266273 0.107524 0.160000 0.093750 -0.128652 0.160000 0.093843 0.049502 0.160000 0.266389 0.049502 0.160000 0.033611 -0.103927 0.160000 0.263769 -0.103927 0.160000 0.036231 0.108246 0.160000 0.243591 0.107644 0.160000 0.206224 0.075068 0.160000 0.187496 0.075051 0.160000 0.149999 0.042576 0.160000 0.168749 0.042572 0.160000 0.131250 0.010097 0.160000 0.150000 0.010096 0.160000 0.112500 -0.022380 0.160000 0.131250 -0.022380 0.160000 0.168750 -0.054856 0.160000 0.150000 -0.054856 0.160000 0.187500 -0.054856 0.160000 0.112500 -0.021787 0.160000 0.205223 0.041948 0.160000 0.205161 0.041944 0.160000 0.094838 -0.087332 0.160000 0.131250 0.009732 0.160000 0.076459 -0.052213 0.160000 0.230010 -0.087332 0.160000 0.206250 -0.085697 0.160000 0.094014 -0.052064 0.160000 0.069881 -0.087332 0.160000 0.168750 0.074944 0.160000 0.112681 0.071736 0.160000 0.069332 0.108253 0.160000 0.055990 -0.128652 0.160000 0.206157 0.071875 0.160000 0.230667 0.009324 0.160000 0.038426 -0.127524 0.160000 0.131250 0.009376 0.160000 0.261782 -0.067135 0.160000 0.033104 -0.067153 0.160000 0.266883 0.107507 0.160000 0.131280 0.010092 0.160000 0.187147 0.009935 0.160000 0.222354 -0.022380 0.160000 0.093750 -0.132122 0.160000 0.057556 -0.132122 0.160000 0.242444 0.084078 0.160000 0.268786 0.084063 0.160000 0.031164 -0.083286 0.160000 0.061708 -0.083646 0.160000 0.238320 -0.017367 0.160000 0.062449 -0.017683 0.160000 0.237260 0.036448 0.160000 0.062533 0.037178 0.160000 0.237257 -0.132548 0.160000 0.272548 0.112548 0.160000 0.027452 -0.132548 0.160000 0.027452 0.112548 0.160000 0.272548 -0.107428 0.160000 0.150000 -0.107428 0.160000 0.112500 -0.107428 0.160000 0.187500 -0.107607 0.160000 0.224689 -0.107607 0.160000 0.075311 -0.160000 -0.011446 0.033727 -0.160000 -0.011446 0.266273 -0.160000 0.127524 0.131250 -0.160000 -0.107524 0.131250 -0.160000 0.069502 0.266389 -0.160000 -0.108652 0.206157 -0.160000 0.069502 0.033611 -0.160000 0.127524 0.206250 -0.160000 -0.083927 0.036231 -0.160000 0.128246 0.056409 -0.160000 -0.083927 0.263769 -0.160000 0.127524 0.168750 -0.160000 0.095048 0.150000 -0.160000 0.095048 0.112500 -0.160000 0.062572 0.131250 -0.160000 0.062572 0.168750 -0.160000 0.030096 0.150000 -0.160000 0.030096 0.187500 -0.160000 -0.002380 0.168750 -0.160000 -0.002380 0.131250 -0.160000 -0.034856 0.150000 -0.160000 -0.034856 0.112500 -0.160000 -0.034856 0.187500 -0.160000 -0.001787 0.094777 -0.160000 0.061944 0.094838 -0.160000 0.061944 0.205162 -0.160000 -0.067332 0.168750 -0.160000 0.029732 0.223541 -0.160000 -0.032213 0.069990 -0.160000 -0.067332 0.093750 -0.160000 -0.065697 0.205986 -0.160000 -0.032064 0.230119 -0.160000 0.094943 0.187319 -0.160000 0.091736 0.230668 -0.160000 0.128253 0.244010 -0.160000 -0.002380 0.206250 -0.160000 0.029376 0.038218 -0.160000 -0.107524 0.168750 -0.160000 0.029324 0.261573 -0.160000 0.091854 0.069328 -0.160000 0.030090 0.112852 -0.160000 -0.047135 0.266896 -0.160000 0.127112 0.092831 -0.160000 -0.047153 0.033117 -0.160000 -0.108652 0.093843 -0.160000 -0.067332 0.131250 -0.160000 0.029934 0.077646 -0.160000 -0.112122 0.242444 -0.160000 -0.112122 0.057556 -0.160000 0.104076 0.031214 -0.160000 0.104063 0.268836 -0.160000 -0.063286 0.238292 -0.160000 -0.063646 0.061680 -0.160000 0.002317 0.062740 -0.160000 0.002633 0.237551 -0.160000 0.056448 0.237467 -0.160000 0.057174 0.062742 -0.160000 -0.112548 0.272548 -0.160000 -0.112548 0.027452 -0.160000 0.132548 0.027452 -0.160000 0.132548 0.272548 -0.160000 -0.087428 0.150000 -0.160000 -0.087428 0.112500 -0.160000 -0.087428 0.187500 -0.160000 -0.087606 0.075311 -0.160000 -0.087606 0.224689 0.008750 -0.140000 0.032476 -0.028750 -0.140000 0.267524 -0.127524 -0.140000 0.131250 0.106783 -0.140000 0.169228 0.104521 -0.140000 0.099232 -0.127701 -0.140000 0.205944 0.047032 -0.140000 0.267895 -0.067104 -0.140000 0.034844 0.107154 -0.140000 0.238997 -0.128301 -0.140000 0.056106 0.083750 -0.140000 0.032476 -0.100521 -0.140000 0.264078 0.008880 -0.140000 0.267586 -0.009978 -0.140000 0.235058 -0.045227 -0.140000 0.236360 -0.027979 -0.140000 0.203017 0.009433 -0.140000 0.202992 -0.009937 -0.140000 0.170134 -0.044817 -0.140000 0.169899 -0.027812 -0.140000 0.137316 0.008917 -0.140000 0.137576 -0.009816 -0.140000 0.105086 -0.046832 -0.140000 0.104806 0.027521 -0.140000 0.105138 0.046281 -0.140000 0.137612 -0.028750 -0.140000 0.072668 0.065000 -0.140000 0.105144 0.046004 -0.140000 0.074289 -0.065219 -0.140000 0.072873 -0.087328 -0.140000 0.107523 0.083727 -0.140000 0.136501 0.065000 -0.140000 0.170096 0.086638 -0.140000 0.203036 0.049555 -0.140000 0.204635 0.068730 -0.140000 0.236063 0.028530 -0.140000 0.235517 -0.028750 -0.140000 0.032476 0.046250 -0.140000 0.032476 0.028208 -0.140000 0.170507 -0.127554 -0.140000 0.168699 -0.095514 -0.140000 0.149973 -0.126952 -0.140000 0.092178 -0.097448 -0.140000 0.187047 -0.098648 -0.140000 0.224077 0.008750 -0.140000 0.072668 -0.063452 -0.140000 0.268255 -0.104595 -0.140000 0.031487 0.108975 -0.140000 0.058009 -0.129903 -0.140000 0.242358 0.082660 -0.140000 0.269152 -0.066112 -0.140000 0.204388 -0.063016 -0.140000 0.138638 0.079673 -0.140000 0.075022 -0.097147 -0.140000 0.067222 0.114639 -0.140000 0.131250 0.116799 -0.140000 0.206250 -0.132548 -0.140000 0.272548 0.112548 -0.140000 0.027452 -0.132548 -0.140000 0.027452 0.112548 -0.140000 0.272548 -0.074952 -0.140000 0.168750 -0.047500 -0.140000 0.052572 0.027500 -0.140000 0.052572 -0.010000 -0.140000 0.052572 0.061952 -0.140000 0.052592 -0.074106 -0.140000 0.240787 -0.028750 0.127524 0.300000 0.106273 -0.011446 0.300000 -0.028750 -0.109639 0.300000 -0.126680 0.029095 0.300000 0.106389 0.069502 0.300000 0.046157 -0.108652 0.300000 -0.122996 -0.042407 0.300000 0.046250 0.127524 0.300000 -0.102300 0.128361 0.300000 0.103769 -0.083927 0.300000 -0.103591 -0.108246 0.300000 0.083591 0.128246 0.300000 0.070827 0.091944 0.300000 0.028471 0.094531 0.300000 0.046250 0.062572 0.300000 0.008912 0.062486 0.300000 0.027527 0.030082 0.300000 -0.009969 0.030079 0.300000 0.008760 -0.002385 0.300000 -0.028984 -0.002523 0.300000 -0.047775 0.029930 0.300000 -0.008671 -0.034092 0.300000 0.027723 -0.034729 0.300000 -0.047285 -0.035734 0.300000 0.009911 -0.063751 0.300000 0.063727 0.029834 0.300000 0.045998 -0.064728 0.300000 0.070152 -0.031908 0.300000 -0.066224 -0.107997 0.300000 -0.086417 -0.074028 0.300000 -0.047255 -0.075306 0.300000 0.008744 -0.109243 0.300000 -0.028750 0.062572 0.300000 -0.066296 0.062544 0.300000 -0.086239 0.029648 0.300000 -0.103750 0.062572 0.300000 -0.104562 -0.004586 0.300000 -0.067698 -0.003216 0.300000 -0.085576 -0.035641 0.300000 0.101600 0.029339 0.300000 0.106900 -0.047117 0.300000 0.046250 -0.002380 0.300000 -0.066008 0.127664 0.300000 0.008912 0.127438 0.300000 -0.009784 0.094933 0.300000 -0.047500 0.095048 0.300000 -0.084726 0.095206 0.300000 -0.125458 0.098920 0.300000 0.082444 -0.112122 0.300000 0.108805 0.104087 0.300000 -0.127876 -0.083490 0.300000 0.078302 -0.063057 0.300000 0.077600 0.002688 0.300000 -0.134957 0.065825 0.300000 0.077363 0.058240 0.300000 -0.135529 -0.008750 0.300000 -0.020592 -0.061406 0.300000 0.112548 -0.112548 0.300000 -0.132548 0.132548 0.300000 -0.132548 -0.112548 0.300000 0.112548 0.132548 0.300000 -0.066633 -0.055177 0.300000 0.027583 -0.086953 0.300000 -0.009582 -0.086862 0.300000 0.064689 -0.087606 0.300000 -0.028750 0.127524 0.000000 0.008750 -0.107524 0.000000 0.106273 0.031446 0.000000 -0.126783 -0.009228 0.000000 -0.124521 0.060768 0.000000 0.106389 -0.049502 0.000000 0.046157 0.128652 0.000000 -0.067032 -0.107895 0.000000 -0.103750 0.127524 0.000000 -0.127154 -0.078997 0.000000 0.083591 -0.108246 0.000000 0.103769 0.103927 0.000000 0.046224 -0.107644 0.000000 0.027496 -0.075068 0.000000 -0.010001 -0.075051 0.000000 0.008749 -0.042576 0.000000 -0.029301 -0.042917 0.000000 -0.010092 -0.010154 0.000000 0.027485 -0.010107 0.000000 0.008732 0.022368 0.000000 -0.028768 0.022368 0.000000 -0.010000 0.054856 0.000000 0.027497 0.054854 0.000000 -0.047503 0.054854 0.000000 -0.066254 0.022378 0.000000 0.008750 0.087332 0.000000 -0.085000 0.054856 0.000000 -0.066003 0.085711 0.000000 0.045986 0.085697 0.000000 0.070118 0.052064 0.000000 -0.103724 0.023498 0.000000 -0.085000 -0.010096 0.000000 -0.106638 -0.043036 0.000000 -0.069555 -0.044635 0.000000 -0.088730 -0.076063 0.000000 -0.048496 -0.075500 0.000000 0.045159 -0.041950 0.000000 0.063538 -0.009735 0.000000 0.008750 0.127524 0.000000 0.070667 -0.071875 0.000000 0.046250 0.022380 0.000000 0.106896 0.067135 0.000000 -0.048162 -0.010510 0.000000 0.101573 -0.009325 0.000000 -0.066250 0.127524 0.000000 -0.028962 -0.107622 0.000000 -0.028750 0.087332 0.000000 -0.128975 0.101991 0.000000 0.108786 -0.084078 0.000000 0.082444 0.132122 0.000000 -0.102660 -0.109152 0.000000 0.078292 0.083286 0.000000 -0.099673 0.084978 0.000000 -0.134639 0.028750 0.000000 0.077550 0.017366 0.000000 0.077465 -0.036477 0.000000 -0.136799 -0.046250 0.000000 -0.132548 0.132548 0.000000 0.112548 -0.112548 0.000000 0.112548 0.132548 0.000000 -0.132548 -0.112548 0.000000 0.027500 0.107428 0.000000 -0.047500 0.107428 0.000000 -0.010000 0.107428 0.000000 -0.081952 0.107408 0.000000 0.064689 0.107607 0.000000 -0.009998 0.009997 0.149995 -0.066432 -0.036030 0.208543 -0.064145 0.065851 0.093844 0.046178 -0.044031 0.206111 0.046428 0.064561 0.204475 0.044491 -0.046460 0.095450 -0.066861 0.057229 0.206879 0.044539 0.064486 0.093532 -0.066059 -0.046293 0.095987 -0.086530 0.008616 0.149704 -0.020698 -0.065724 0.154718 -0.007840 0.009673 0.226385 -0.011554 0.086553 0.150000 -0.010018 0.011512 0.073441 0.066572 0.010184 0.151611 -0.090681 0.092693 0.152195 -0.011792 -0.071025 0.232184 -0.011652 0.091349 0.230910 0.072224 0.008526 0.067034 0.074258 0.010624 0.233344 -0.009530 0.093279 0.065754 -0.010000 -0.076146 0.071367 -0.092368 -0.071111 0.154909 0.074436 0.091765 0.148492 -0.091942 0.009686 0.066090 0.077029 -0.063443 0.150697 -0.099771 -0.079362 0.238491 -0.096897 0.011014 0.238750 -0.097388 0.101388 0.058076 -0.099115 0.100117 0.237637 0.080095 0.100259 0.058808 0.079987 -0.080041 0.241614 -0.101787 -0.080043 0.060732 0.086264 0.064764 0.244568 0.044723 -0.086852 0.056638 0.027604 -0.086363 0.132522 -0.008298 -0.031446 0.110882 0.086289 -0.047046 0.055886 0.028322 -0.031394 0.153968 0.044602 0.103943 0.245928 -0.050389 -0.087550 0.196064 0.086665 0.105016 0.204129 0.033846 0.006706 0.106999 0.033577 0.054594 0.151595 -0.108893 0.047909 0.119265 -0.005677 0.052698 0.192611 0.027527 0.109141 0.180055 -0.048927 0.047500 0.142877 -0.049493 0.004072 0.110122 -0.010578 0.055742 0.105148 0.027592 0.109029 0.119696 -0.048427 0.010328 0.187777 0.020135 -0.027506 0.050846 0.083539 -0.087191 0.097649 0.018358 -0.087828 0.187013 0.021757 0.048316 0.249585 -0.015206 -0.032821 0.195765 -0.056149 -0.059117 0.251465 0.036077 0.012647 0.195695 -0.045648 0.105376 0.189440 0.089195 0.040264 0.112549 -0.110326 0.046463 0.178348 0.088405 -0.018669 0.111142 -0.109861 -0.010879 0.192672 -0.050430 -0.008268 0.248544 -0.036376 0.048116 0.249438 -0.035887 -0.031863 0.052958 -0.049875 0.038362 0.050554 0.088558 -0.016909 0.190918 0.089897 0.050159 0.177616 -0.036993 0.109587 0.108812 0.031728 -0.015543 0.250849 -0.056435 -0.030561 0.159487 0.030514 0.037011 0.050102 -0.054976 -0.090257 0.122979 -0.109409 -0.017504 0.108861 0.091965 0.051590 0.046790 -0.052204 0.113367 0.252635 0.033035 0.112419 0.049018 -0.053377 -0.089667 0.048574 -0.110546 0.108772 0.107396 0.031232 -0.091384 0.249631 0.093030 0.113421 0.253303 -0.111012 0.055281 0.070263 0.090539 -0.032359 0.253944 -0.084779 0.056101 0.254710 -0.111951 -0.093811 0.193460 0.069431 -0.092477 0.192665 -0.108440 -0.092723 0.110583 -0.096778 -0.034267 0.253677 -0.053128 0.086272 0.046441 -0.085059 -0.035456 0.046364 -0.113616 0.111218 0.191782 0.094193 0.088093 0.103968 0.092250 -0.094984 0.050464 -0.116802 0.060559 0.221798 -0.038487 -0.099558 0.252734 -0.011178 -0.031037 0.254414 -0.114526 -0.031286 0.152091 -0.011536 -0.095485 0.112073 -0.106542 -0.052340 0.205171 -0.009427 0.054807 0.044129 -0.033205 0.123276 0.150000 0.096240 -0.058741 0.205505 0.063175 0.120538 0.095009 0.102522 -0.027429 0.151257 -0.122650 0.120440 0.150000 0.025732 -0.099639 0.092311 -0.010124 -0.100756 0.037110 0.100607 0.037935 0.216031 -0.009944 0.116654 0.264214 -0.120843 -0.101685 0.153374 -0.007720 0.120422 0.200479 -0.070179 0.122004 0.130780 0.102808 0.122701 0.150017 0.050845 0.073957 0.041187 -0.001215 0.124593 0.094592 0.045397 0.001210 0.035393 -0.035643 0.123512 0.053596 -0.122951 -0.017281 0.054266 -0.068029 0.121929 0.081785 0.013401 -0.066558 0.038426 0.059795 0.037840 0.260143 -0.004485 -0.103485 0.151863 0.101673 0.011724 0.037003 -0.085919 0.021596 0.199953 -0.072853 -0.099781 0.085297 0.050286 -0.053719 0.258515 0.050330 0.124625 0.149999 -0.122345 -0.049403 0.082963 -0.061076 -0.000808 0.039112 -0.124428 0.015548 0.137698 -0.125136 0.071406 0.150000 -0.051185 0.087932 0.141711 0.062217 -0.102957 0.150065 0.003081 0.015973 0.264621 0.102397 0.005702 0.262412 0.104463 0.064502 0.141988 0.001621 0.004775 0.035500 -0.122746 0.018688 0.092827 -0.065519 -0.101180 0.160782 -0.089338 0.040283 0.038430 0.103264 0.013176 0.168289 -0.014112 -0.102148 0.206439 -0.009895 0.072852 0.266294 -0.069319 -0.102676 0.227692 -0.040567 0.066915 0.177522 -0.124344 -0.103860 0.257616 -0.054967 0.023191 0.224760 -0.074233 -0.090660 0.265871 0.105159 0.029109 0.077387 -0.073219 0.125562 0.220875 -0.079419 0.028895 0.099301 -0.001487 0.003348 0.187953 -0.124886 0.022948 0.206632 -0.119649 0.075746 0.263344 -0.004423 0.048405 0.143342 -0.122274 0.122274 0.262274 -0.003711 0.017540 0.111851 0.028134 0.016090 0.157350 0.100327 -0.094467 0.135205 -0.041181 -0.046682 0.126741 0.005600 0.121411 0.150421 -0.038443 0.034331 0.087815 0.050295 -0.050929 0.038711 -0.017886 -0.027182 0.157525 0.016317 -0.019125 0.214856 -0.034239 -0.041623 0.226724 -0.063718 0.024738 0.264702 0.028232 0.124646 0.216450 -0.124806 0.124875 0.073257 -0.048198 0.005672 0.149615 -0.122309 -0.056990 0.122327 0.105974 -0.010811 0.076136 0.101574 -0.056816 0.118503 0.011188 -0.064662 0.104545 -0.078955 0.122018 0.176038 -0.002192 0.118938 0.035627 -0.118585 0.035815 0.261418 -0.074835 -0.020535 0.126614 0.074336 0.018988 0.194681 -0.120260 -0.053480 0.036559 -0.125537 -0.104145 0.042388 -0.070380 0.119512 0.037447 -0.125557 -0.013556 0.228423 -0.026282 -0.065070 0.034317 -0.086142 0.054585 0.149557 -0.002115 -0.103586 0.263787 0.106076 0.086265 0.175087 0.010484 -0.061666 0.261822 0.064886 -0.027315 0.141029 0.053191 0.034694 0.125071 -0.086536 -0.105580 0.035404 0.024895 0.096235 0.083245 0.100496 -0.104120 0.216117 -0.048908 0.080545 0.232185 0.103137 0.123137 0.036863 0.064692 -0.106291 0.266832 0.103738 0.121333 0.083523 0.103403 -0.103250 0.263250 -0.126291 0.126831 0.224692 
</DataArray>
</Points>
<Cells>
<DataArray type="Int32" Name="connectivity"  format="ascii">
535 559 493 644 534 552 494 616 510 534 494 616 264 512 274 575 473 259 605 627 492 501 547 578 528 493 559 644 499 559 535 644 511 489 524 540 490 531 503 532 314 585 507 612 274 575 512 586 511 524 521 540 100 461 562 682 100 461 136 562 424 514 229 569 473 605 450 627 369 525 519 608 407 557 505 570 529 536 535 642 541 544 505 557 493 535 529 536 100 562 516 682 499 528 538 559 501 578 492 662 493 587 535 679 489 524 544 554 491 528 504 538 504 491 538 650 549 558 487 586 575 586 274 670 578 637 492 662 264 512 405 633 477 282 272 656 467 514 477 656 499 528 559 644 492 578 547 581 538 559 528 603 505 541 490 544 314 507 565 612 499 528 522 538 116 505 554 570 535 587 506 679 292 573 145 646 199 397 363 563 199 563 363 643 535 536 498 642 505 490 541 608 472 514 569 627 487 542 526 558 216 477 166 656 504 523 491 650 545 492 637 662 546 548 108 628 272 467 477 656 487 526 508 558 515 492 578 637 489 524 540 542 118 145 573 646 496 540 524 542 510 605 259 627 491 522 528 538 272 514 467 656 549 584 558 586 410 664 513 670 249 508 584 586 485 564 516 682 516 562 461 682 499 616 534 649 493 559 535 587 529 498 536 642 519 527 130 595 498 536 535 556 445 564 587 601 461 516 471 562 363 563 515 643 249 572 508 586 400 388 563 681 289 520 421 594 116 554 143 570 497 544 541 557 499 552 534 616 503 490 532 655 135 156 519 568 489 540 502 542 124 562 105 636 407 570 505 622 118 573 145 680 116 554 505 595 407 396 557 570 247 566 530 569 496 526 542 558 428 477 514 656 364 395 139 685 322 540 567 573 292 145 573 680 522 538 507 552 400 551 388 681 369 541 525 608 282 477 216 656 164 485 469 682 124 579 562 636 504 538 528 603 526 496 542 629 233 264 405 633 504 562 493 636 388 571 563 681 535 556 536 602 560 585 507 647 501 488 530 566 526 558 496 626 276 605 259 625 431 461 100 682 489 502 540 567 259 569 510 627 154 93 135 519 531 541 497 544 424 467 229 514 490 525 503 541 494 507 560 612 472 514 424 569 487 508 526 586 485 164 564 682 494 560 507 647 540 542 496 629 522 534 499 552 130 595 527 674 511 489 540 573 289 351 326 520 410 513 391 670 488 576 506 649 576 587 506 649 503 532 531 598 508 558 584 586 401 515 363 563 498 531 529 532 529 536 532 614 490 541 531 544 531 532 498 598 489 542 502 652 487 549 537 558 395 517 570 685 531 541 503 551 391 513 410 664 490 503 531 541 259 510 569 625 500 548 546 628 541 557 505 608 493 559 587 679 472 569 424 627 508 487 558 586 492 515 578 581 367 519 369 525 494 522 507 552 395 517 406 570 497 541 531 551 493 529 509 536 322 540 324 567 516 564 164 682 499 538 522 552 469 164 426 485 361 512 264 575 428 166 477 656 259 605 510 625 124 132 105 562 272 229 467 514 494 534 522 552 489 567 540 573 490 529 531 532 363 515 401 643 504 493 546 636 426 485 164 564 511 573 118 589 553 587 576 649 501 492 545 662 503 525 490 655 537 632 533 672 498 532 529 536 400 630 551 681 493 504 559 562 519 525 490 541 124 132 562 579 505 489 554 570 108 546 106 548 488 566 501 599 397 401 363 563 267 287 574 668 531 486 537 632 490 509 529 532 490 527 509 532 537 497 550 653 428 514 166 656 508 558 526 626 424 472 467 514 106 548 546 636 488 599 501 619 410 224 664 670 93 394 135 519 143 570 554 589 116 112 554 595 209 563 515 637 490 527 519 595 199 363 165 643 535 602 536 679 504 528 559 603 474 562 449 603 495 537 549 558 516 493 562 579 99 139 395 685 502 567 489 675 512 487 543 631 514 569 566 656 410 391 575 670 513 575 391 670 533 537 486 632 118 573 511 646 494 565 507 612 529 532 509 614 460 474 449 603 322 567 323 573 529 509 536 614 492 632 537 672 531 598 498 632 537 611 492 672 511 540 521 620 521 524 496 540 400 388 401 563 526 543 487 631 494 507 522 647 494 577 510 616 549 617 241 640 538 603 504 650 543 583 411 675 507 538 522 661 407 382 396 570 501 530 488 672 289 326 432 520 504 528 548 677 388 551 571 681 506 587 564 601 353 326 520 580 525 541 519 608 294 572 228 633 511 521 491 539 432 421 289 520 98 103 463 523 491 523 504 548 289 351 520 594 129 130 527 674 388 401 563 571 395 570 99 685 490 555 527 595 323 567 517 573 509 493 546 677 523 603 504 610 524 554 489 676 122 523 539 660 311 585 314 612 489 505 557 570 530 566 488 569 504 548 546 677 493 504 528 559 486 524 522 528 169 527 532 614 315 539 593 620 169 532 527 655 361 405 264 512 502 526 542 629 505 570 116 622 537 542 497 653 506 535 488 649 378 550 543 575 211 563 185 598 241 617 240 640 521 593 539 620 154 93 519 622 532 536 498 648 477 467 428 514 118 589 573 680 509 493 536 590 531 486 632 642 494 552 577 616 502 489 652 675 267 574 330 668 519 541 490 608 122 523 123 539 103 463 523 610 534 616 510 649 535 559 499 587 93 394 519 622 400 387 388 551 400 387 551 630 474 562 603 610 493 528 504 677 491 522 524 528 314 333 507 585 533 632 486 642 424 569 259 627 255 547 578 581 529 509 555 677 135 102 156 568 487 537 550 653 107 108 106 548 164 469 207 682 502 542 540 629 507 494 552 565 491 524 521 676 529 642 535 677 369 519 409 608 518 574 287 668 247 262 566 569 107 548 106 636 494 534 510 665 169 181 532 655 449 562 559 603 486 528 522 644 240 617 547 640 135 519 359 568 504 528 491 548 560 507 585 612 493 509 546 579 99 570 517 685 460 449 559 603 642 644 535 677 535 644 493 677 490 529 509 555 529 535 493 677 108 548 591 628 489 544 505 554 505 519 490 608 288 274 512 586 368 525 369 541 509 623 555 677 509 529 493 677 508 572 526 586 490 544 529 666 398 197 525 596 368 525 541 630 511 489 554 676 547 617 549 640 490 519 505 595 489 517 567 573 316 539 520 593 492 501 545 632 492 547 501 672 509 579 493 590 496 560 626 647 493 504 546 677 410 575 224 670 490 529 555 666 508 572 249 597 423 450 473 605 509 527 490 555 400 563 630 681 502 583 543 675 516 562 132 579 255 248 547 581 514 262 569 656 333 593 351 594 435 538 552 671 472 576 514 627 566 569 262 656 488 553 576 649 492 531 551 634 495 611 537 672 515 563 401 571 229 514 262 569 351 593 520 594 506 587 601 679 491 521 511 676 495 537 533 672 489 505 544 652 255 578 547 618 513 392 575 654 526 586 572 631 382 557 396 570 115 511 118 589 528 493 644 677 236 530 247 566 496 542 524 651 514 488 566 569 521 496 524 661 421 594 520 607 115 511 589 591 535 506 602 679 497 537 550 634 185 598 563 637 559 601 587 679 488 535 506 556 411 673 582 675 109 546 108 628 508 626 560 647 569 576 488 627 288 228 572 633 522 524 496 661 550 575 392 654 143 116 114 554 144 130 519 527 314 333 352 507 371 608 396 621 135 394 359 519 506 587 466 663 425 141 98 523 229 259 424 569 537 495 549 611 322 305 324 540 463 475 523 610 527 532 490 655 491 538 607 661 492 551 531 681 212 182 602 679 506 488 556 576 374 621 550 654 554 570 489 589 531 497 551 634 445 466 587 663 141 523 425 580 493 562 559 601 499 559 538 624 505 608 407 622 511 573 540 620 212 602 564 679 491 523 548 660 326 432 520 580 116 595 505 622 505 554 544 666 529 500 555 666 508 494 560 574 103 610 523 659 507 647 585 661 494 510 561 665 490 531 529 544 535 506 556 602 544 645 529 666 494 574 508 658 507 522 647 661 98 463 425 523 435 437 436 552 563 598 545 637 249 584 508 658 493 535 536 679 552 565 494 577 254 274 586 670 526 542 487 653 109 623 546 628 527 555 509 674 488 566 599 606 491 607 520 661 514 488 569 576 522 538 491 661 500 529 645 666 501 488 619 672 506 576 466 587 393 550 378 575 249 584 245 586 453 577 565 671 236 530 566 618 506 587 535 649 466 576 506 663 329 340 560 626 307 609 526 629 498 598 545 632 508 597 249 658 492 501 632 672 332 572 294 633 497 557 541 621 288 253 274 586 314 565 507 594 505 544 490 666 169 600 527 614 492 537 531 634 511 524 489 676 559 562 504 603 509 532 527 614 369 367 409 519 154 519 595 622 212 564 590 679 333 507 585 593 396 608 557 621 326 299 430 580 486 524 528 645 259 269 276 625 507 607 538 661 491 539 521 593 567 629 302 673 537 549 487 611 353 299 326 580 525 527 490 655 491 539 523 660 197 362 398 525 272 262 229 514 454 565 453 577 492 637 515 681 97 527 158 600 259 569 269 625 473 424 259 627 489 557 505 652 545 563 503 598 326 430 432 580 307 526 609 626 238 255 547 618 494 658 508 665 141 425 468 580 513 575 550 654 411 385 543 582 489 524 542 652 490 525 519 527 446 447 472 576 531 537 497 634 502 543 526 582 504 603 562 610 503 541 525 630 329 560 574 626 352 507 333 594 518 494 565 577 314 507 352 594 504 548 523 659 315 539 316 593 212 590 182 679 169 532 171 614 492 531 537 632 423 473 259 605 487 611 513 634 502 542 526 653 435 552 436 671 572 586 512 631 521 524 511 676 375 621 374 654 505 490 595 666 487 513 550 634 489 511 554 589 527 600 509 614 391 513 392 575 514 576 569 627 567 613 489 675 559 603 538 624 144 519 156 568 495 549 547 617 495 558 549 584 375 551 621 654 236 237 530 618 341 520 316 539 493 516 562 601 510 494 561 577 492 545 637 681 463 457 475 610 487 543 526 653 314 310 333 585 451 577 510 605 211 185 180 598 107 548 636 659 550 621 551 654 523 504 603 650 211 202 596 598 329 560 340 574 238 255 248 547 489 570 557 613 337 332 294 633 553 488 576 627 506 576 556 604 194 527 525 655 391 392 513 654 520 607 507 661 212 184 564 602 544 557 497 652 293 539 148 580 359 102 135 568 527 595 555 674 487 542 537 653 491 528 524 676 168 527 140 568 324 302 567 629 531 537 486 639 97 158 147 600 491 521 524 661 144 527 519 568 446 576 472 627 513 549 487 670 494 508 647 665 288 512 572 586 520 523 491 539 123 539 523 580 532 598 503 655 509 600 590 614 526 582 543 631 533 537 495 657 169 181 171 532 212 182 184 602 510 616 451 627 531 551 503 681 529 544 531 645 122 659 523 660 313 315 312 593 156 144 130 519 292 620 573 646 519 525 367 568 613 652 489 675 143 119 570 589 486 537 533 657 440 553 616 624 494 508 560 647 555 623 500 677 545 598 180 637 525 527 194 568 368 596 525 630 98 138 103 523 103 523 138 659 590 600 579 684 143 554 114 589 247 236 237 530 521 539 511 620 411 418 582 673 502 526 543 653 517 567 323 683 487 550 537 634 322 324 323 567 513 487 549 611 393 392 550 575 368 541 370 630 288 270 228 633 375 551 372 621 167 168 140 568 546 500 623 677 394 608 519 622 333 507 593 594 327 540 521 609 526 496 609 626 512 572 332 633 393 392 378 550 496 524 522 651 510 577 451 616 378 411 543 583 302 324 567 673 535 556 488 619 190 200 600 684 557 652 613 675 533 535 488 619 536 556 498 648 362 525 163 568 185 180 598 637 543 550 378 583 596 598 202 655 432 421 520 607 513 487 575 670 118 145 96 680 491 524 522 661 313 312 521 593 556 576 488 606 486 534 651 657 239 547 240 617 500 591 548 628 164 516 191 564 486 534 522 651 190 600 590 684 556 604 576 606 306 609 307 629 500 529 555 677 547 578 501 618 499 616 553 624 511 539 491 660 267 271 287 668 503 551 541 630 368 369 370 541 455 453 565 671 506 601 564 679 489 544 524 652 497 551 550 621 510 577 561 605 423 259 223 605 445 587 442 601 267 330 271 668 311 560 585 612 536 602 556 648 549 584 241 617 362 197 163 525 288 572 512 633 437 462 552 624 505 557 544 652 435 607 538 671 114 115 589 591 517 570 119 589 197 525 596 655 144 129 130 527 503 525 596 630 487 550 513 575 534 510 638 649 488 514 566 606 114 589 554 591 559 562 449 601 510 616 553 649 546 623 500 628 521 540 327 620 241 239 240 617 100 516 132 682 546 623 509 677 578 581 515 686 423 451 450 605 336 293 148 580 491 607 538 650 579 590 509 600 440 587 553 624 336 148 101 580 561 577 494 615 499 553 616 649 112 554 595 628 491 520 607 650 488 599 556 606 471 562 516 601 190 590 600 614 121 122 123 539 163 206 366 568 488 627 553 638 517 489 570 589 362 163 366 568 489 613 557 652 375 372 374 621 540 567 502 629 496 526 609 629 97 168 158 527 500 623 555 628 340 560 318 574 123 98 141 523 520 593 507 594 200 95 600 684 487 512 543 575 329 574 597 626 447 472 576 669 561 605 577 615 117 589 118 680 454 455 453 565 308 609 560 626 116 143 155 570 368 398 525 596 497 537 531 639 249 253 572 586 353 316 341 520 109 108 110 628 466 604 576 663 531 632 492 681 569 627 488 638 120 511 115 660 279 259 229 569 122 539 121 660 443 553 576 627 472 447 484 669 503 632 531 681 197 213 525 655 284 249 597 658 487 549 586 670 517 489 567 613 494 518 565 612 462 616 552 624 503 563 545 681 582 673 502 675 394 409 519 608 288 572 253 586 453 552 577 671 236 247 262 566 528 500 548 677 489 517 570 613 487 537 611 634 162 196 225 566 534 647 522 651 642 645 644 677 491 520 539 593 168 97 140 527 522 528 499 644 488 556 599 619 487 537 542 558 386 360 301 673 482 604 466 663 124 546 579 636 565 577 552 671 123 523 141 580 557 608 541 621 501 566 530 618 374 583 550 621 494 518 574 615 224 575 264 670 498 556 535 619 526 572 508 626 523 659 548 660 443 576 446 627 361 384 512 575 466 445 483 663 443 466 576 587 475 425 463 523 579 600 95 684 489 573 511 589 404 102 359 568 647 651 534 657 411 418 673 675 482 576 466 604 282 232 272 656 514 576 472 669 109 110 623 628 493 601 559 679 487 586 575 670 115 118 117 589 175 588 602 648 520 539 341 580 169 158 527 600 511 591 115 660 459 520 432 580 544 639 524 652 522 534 494 647 534 533 644 649 262 514 272 656 519 527 525 568 140 527 144 568 115 120 118 511 540 573 327 620 277 664 224 670 486 522 524 651 315 341 316 539 256 581 578 686 507 565 552 671 425 523 459 580 331 597 572 626 119 517 99 570 359 519 367 568 546 548 500 677 443 447 446 576 511 660 491 676 552 616 499 624 360 567 301 673 229 262 279 569 508 597 574 626 515 563 571 681 323 573 517 680 459 432 430 580 503 598 596 655 341 353 520 580 298 271 330 668 491 548 528 676 518 494 574 612 564 602 184 663 502 652 583 675 515 571 401 641 440 616 462 624 427 325 465 565 535 644 533 649 511 120 646 660 209 515 643 686 513 581 571 611 327 540 322 573 498 535 533 619 546 548 504 636 524 639 542 652 288 512 274 633 432 433 421 607 97 527 600 674 309 327 313 521 485 516 471 682 166 514 428 669 468 425 459 580 495 533 534 638 443 576 553 587 287 574 518 615 487 543 550 575 245 584 549 586 558 647 508 665 349 331 339 626 329 340 318 574 256 515 581 686 249 253 286 572 295 301 360 567 571 581 492 611 117 118 96 680 528 645 524 676 494 615 574 658 529 531 498 642 546 579 509 623 163 525 194 568 505 595 554 666 143 119 99 570 595 628 554 666 495 534 533 657 362 367 525 568 309 521 312 593 521 540 496 609 213 163 197 525 642 529 645 677 437 440 462 624 505 595 519 622 499 535 587 649 327 521 309 609 557 570 382 613 191 564 516 590 432 520 433 607 522 534 486 644 120 118 511 646 528 548 500 676 121 539 123 580 405 361 384 512 208 166 514 656 409 359 394 519 500 645 528 676 560 609 496 626 497 531 544 639 309 585 521 593 406 570 517 613 309 312 585 593 194 168 167 568 555 595 113 674 519 608 505 622 503 545 632 681 531 486 642 645 208 514 166 669 491 523 520 650 362 366 367 568 314 565 350 612 114 116 112 554 531 639 486 645 194 527 168 568 313 521 327 620 95 200 146 684 342 518 574 612 228 328 260 572 294 328 228 572 131 112 116 595 391 513 389 654 284 268 249 658 175 588 556 602 140 97 144 527 169 170 600 614 503 596 525 655 502 629 567 673 398 362 368 525 307 609 308 626 445 481 564 601 495 533 638 672 255 578 256 581 332 331 572 631 250 277 640 664 513 611 571 634 561 617 495 638 508 574 560 626 512 575 487 586 400 563 596 630 190 600 170 614 539 620 315 646 533 535 498 642 512 633 631 635 547 549 495 611 507 593 520 661 332 572 512 631 458 426 195 564 210 184 602 663 159 193 234 578 496 609 540 629 644 645 528 677 516 564 485 601 640 664 277 670 131 154 595 622 265 162 225 566 571 611 492 634 368 367 369 525 254 274 253 586 553 587 499 624 499 534 522 644 122 138 523 659 452 577 423 605 471 516 485 601 203 604 556 606 497 542 537 639 333 585 310 593 495 584 549 617 556 602 588 648 406 683 517 685 314 350 565 594 374 378 550 583 560 574 494 612 492 611 547 672 300 631 633 635 523 610 504 659 389 654 513 664 496 585 647 661 423 577 451 605 541 551 497 621 582 629 303 631 523 539 520 580 212 564 191 590 459 520 580 650 533 619 488 672 554 589 511 591 210 602 604 663 243 584 249 658 419 683 406 685 203 602 556 604 486 528 644 645 209 637 515 686 176 180 545 598 304 303 629 631 389 513 391 664 440 443 553 587 95 579 125 600 508 658 584 665 249 245 253 586 155 116 570 622 515 641 401 643 516 579 132 684 486 533 642 644 497 550 551 634 304 629 526 631 535 642 533 644 148 539 293 646 544 639 531 645 501 619 545 632 491 660 548 676 498 588 598 648 516 493 579 590 308 585 560 609 483 482 466 663 488 638 533 672 97 600 147 674 514 488 576 606 496 558 542 651 515 492 571 581 246 605 561 615 529 531 642 645 147 600 127 674 488 535 533 649 178 545 180 637 372 621 551 630 168 169 158 527 324 305 302 629 332 631 512 633 197 596 202 655 275 518 287 668 547 617 239 618 459 580 523 650 314 350 317 612 493 590 516 679 509 590 536 614 300 631 332 633 514 606 208 656 411 418 385 582 166 204 216 656 311 310 314 585 559 442 587 601 510 553 627 638 542 502 652 653 566 592 236 618 148 121 539 646 330 342 298 668 583 652 502 653 174 175 602 648 125 600 579 623 320 327 573 620 396 380 407 608 384 633 512 635 420 604 482 663 122 138 123 523 341 539 293 580 126 579 95 684 453 577 552 616 209 643 221 686 225 566 196 592 309 313 312 521 498 588 545 598 518 494 577 615 538 552 499 624 516 601 493 679 319 315 620 646 268 243 249 658 131 153 154 622 371 541 608 621 200 161 146 684 496 647 522 661 279 269 259 569 576 604 506 663 331 329 597 626 462 453 552 616 520 593 491 661 524 639 544 645 550 583 497 621 239 617 237 618 247 569 530 625 427 296 325 565 275 667 518 668 237 617 530 618 235 236 592 618 176 545 588 598 300 354 332 631 320 573 292 620 507 520 594 607 287 518 275 615 515 571 492 681 164 191 212 564 405 512 384 633 370 541 621 630 494 561 658 665 423 452 451 577 194 525 213 655 542 558 537 651 592 599 218 662 255 235 592 618 502 582 526 629 370 621 372 630 246 561 605 625 440 439 587 624 542 639 524 651 331 349 329 626 443 441 466 587 458 564 195 663 508 584 558 665 498 598 532 648 583 652 557 675 532 614 536 648 222 208 606 656 364 419 406 685 213 194 163 525 359 409 367 519 385 416 378 543 108 548 137 591 384 512 575 635 320 327 322 573 255 592 578 618 359 367 404 568 304 307 526 629 255 256 248 581 436 552 453 671 488 530 638 672 495 547 611 672 249 572 286 597 563 637 545 681 543 575 512 635 393 416 384 575 619 632 501 672 162 219 196 566 354 631 300 635 561 625 617 638 553 638 510 649 555 595 490 666 325 465 565 594 440 441 443 587 530 495 617 638 445 466 441 587 428 467 472 514 426 164 195 564 121 123 101 580 431 485 471 682 554 591 511 676 573 620 511 646 132 682 516 684 245 241 549 584 176 180 178 545 496 521 585 661 504 636 548 659 561 638 495 665 506 602 564 663 420 482 483 663 97 147 127 674 487 550 543 653 521 491 593 661 114 115 117 589 518 668 667 678 336 341 293 580 154 135 156 519 287 252 574 615 245 586 549 670 242 241 584 617 106 108 109 546 163 194 206 568 124 579 546 623 510 627 569 638 302 629 582 673 263 530 237 617 579 600 509 623 436 462 453 552 534 638 533 649 242 584 561 617 174 536 172 648 475 459 425 523 441 440 439 587 411 385 378 543 244 561 242 584 513 664 640 670 388 571 551 654 246 251 605 615 92 136 422 562 234 193 230 578 154 156 130 519 489 517 573 589 488 533 638 649 304 526 339 631 433 520 459 650 238 547 239 618 332 339 331 631 292 573 321 680 209 221 637 686 445 448 481 601 436 437 462 552 197 211 202 596 540 609 306 629 114 554 112 628 304 306 307 629 494 561 615 658 374 373 583 621 201 171 532 648 372 551 387 630 267 287 285 574 556 588 498 648 377 373 557 583 277 261 224 664 475 459 523 650 122 548 659 660 310 309 312 585 285 597 574 658 435 538 438 624 260 228 66 328 228 294 66 328 481 445 564 663 160 355 397 563 537 558 495 657 474 603 457 610 234 159 45 193 176 598 588 648 267 226 291 574 340 308 560 626 261 410 224 664 203 188 604 606 308 311 560 585 542 652 497 653 95 126 125 579 238 240 239 547 559 587 439 624 244 242 243 584 497 652 583 653 208 606 514 669 111 554 114 628 557 583 373 621 495 638 530 672 577 605 452 667 387 375 388 551 393 391 392 575 309 521 585 609 305 540 306 629 243 245 249 584 495 558 584 665 407 608 380 622 387 372 375 551 208 222 166 656 111 114 112 628 327 306 540 609 353 326 351 520 322 327 305 540 247 530 263 625 292 96 145 680 460 449 442 559 370 541 371 621 176 545 178 588 109 124 546 623 258 549 241 640 256 581 515 641 509 600 527 674 536 590 172 614 261 358 410 664 530 617 547 618 316 520 351 593 400 596 399 630 157 464 420 669 174 172 173 648 219 566 187 599 157 420 604 669 526 629 582 631 386 360 89 301 209 165 221 643 551 621 541 630 256 641 515 643 189 218 599 662 201 598 176 648 375 388 551 654 185 178 180 637 243 242 241 584 113 112 595 628 497 583 550 653 516 564 601 679 195 564 184 663 190 161 200 684 239 263 237 617 183 218 592 599 250 640 581 664 183 189 218 599 328 260 572 597 303 582 302 629 444 553 443 627 530 617 625 638 174 182 536 602 377 376 373 583 267 285 226 574 547 617 530 672 440 553 444 616 396 557 373 621 439 559 442 587 196 47 162 225 461 422 136 562 111 114 554 591 351 316 353 520 438 538 456 603 245 254 586 670 305 327 306 540 486 524 639 651 130 154 519 595 506 604 602 663 433 432 459 520 435 438 437 624 537 639 542 651 493 536 590 679 486 639 524 645 124 106 546 636 371 541 369 608 250 581 278 664 107 137 108 548 560 585 496 609 360 295 89 301 113 595 555 628 275 231 667 668 550 583 543 653 275 615 518 667 242 617 561 625 237 263 247 530 371 380 396 608 442 559 449 601 285 284 226 597 171 181 201 532 396 382 377 557 371 370 369 541 465 80 325 427 256 643 515 686 503 630 563 681 187 599 566 606 392 374 378 550 93 26 135 394 334 357 290 582 543 583 502 653 582 629 502 673 154 153 93 622 182 172 536 590 160 397 199 563 323 680 683 685 444 440 443 553 201 173 171 648 122 548 107 659 182 172 174 536 496 585 521 609 132 136 105 562 496 585 560 647 107 122 137 548 187 606 566 656 109 124 106 546 486 639 537 651 159 578 234 592 458 481 426 564 530 618 547 672 378 376 411 583 357 334 383 582 219 183 218 592 262 247 279 569 352 333 351 594 321 322 323 573 392 374 550 654 321 573 323 680 323 567 324 683 344 96 292 680 523 580 520 650 503 596 563 630 122 137 548 660 517 683 680 685 285 287 252 574 285 226 574 597 304 339 303 631 98 123 138 523 463 10 103 98 456 603 538 650 501 592 566 618 276 223 259 605 295 567 360 683 374 373 376 583 174 602 536 648 314 352 350 594 556 602 506 604 564 602 506 679 435 456 438 538 578 592 220 662 125 600 623 674 449 562 471 601 160 563 211 596 195 212 184 564 38 426 195 458 339 304 307 526 516 590 564 679 488 530 569 638 547 581 248 640 210 602 203 604 111 108 591 628 240 238 248 547 246 242 561 625 65 270 337 294 358 391 410 664 253 245 254 586 377 583 557 675 572 597 508 626 175 556 203 602 384 365 633 635 385 416 543 635 92 105 562 636 196 566 219 592 511 620 539 646 323 680 517 683 307 339 526 626 240 547 248 640 191 516 682 684 110 555 623 628 399 596 368 630 486 651 537 657 148 293 94 646 377 557 382 613 482 604 420 669 442 445 441 587 374 376 378 583 536 614 172 648 370 371 372 621 310 585 312 593 495 617 547 672 549 611 547 640 441 439 442 587 262 236 566 656 396 373 371 621 292 320 321 573 452 605 423 667 311 314 317 612 82 326 432 289 423 605 223 667 578 592 501 618 397 400 401 563 270 65 228 294 455 565 454 678 201 532 598 648 439 460 559 603 318 574 560 612 267 291 330 574 421 82 432 289 476 423 223 667 543 582 385 635 545 619 501 662 391 389 392 654 576 604 482 669 171 614 532 648 534 495 638 665 133 682 132 684 157 198 464 669 468 478 150 580 647 657 534 665 468 150 141 580 439 603 559 624 201 532 181 655 269 569 247 625 427 565 455 678 419 417 381 683 581 611 513 640 244 246 561 615 110 555 128 623 203 556 179 606 244 561 584 658 488 638 553 649 197 202 213 655 391 361 410 575 456 538 435 650 350 325 565 594 178 588 545 662 172 590 190 614 246 605 276 625 492 581 547 611 394 380 608 622 401 641 402 643 92 562 610 636 430 346 478 580 530 501 618 672 230 234 45 193 292 145 96 344 222 606 187 656 430 326 83 299 538 607 435 650 346 150 478 580 465 565 594 671 148 94 121 646 492 551 571 634 355 400 563 596 427 455 454 678 365 383 300 635 499 587 553 649 111 591 554 628 128 110 113 555 406 382 570 613 452 454 577 667 94 293 343 646 245 243 241 584 558 651 647 657 178 177 588 662 265 162 47 225 470 429 668 678 426 481 485 564 325 296 350 565 83 432 326 430 368 362 367 525 228 260 286 572 457 603 456 650 300 633 365 635 417 613 567 675 466 447 443 576 135 26 359 394 334 300 383 635 550 551 634 654 194 169 168 527 501 599 592 662 220 193 159 578 476 223 266 667 113 555 110 628 162 566 265 656 537 651 558 657 218 220 159 592 218 196 219 592 217 167 149 568 352 351 289 594 463 10 98 425 420 157 40 464 582 631 334 635 183 219 187 599 394 407 380 622 175 179 556 588 474 422 562 610 225 236 566 592 292 319 620 646 245 241 258 549 145 343 292 646 220 578 159 592 599 619 588 662 545 588 619 662 24 395 356 134 470 454 429 678 385 418 357 582 405 384 365 633 499 587 559 624 254 224 264 670 233 288 274 633 250 261 277 664 308 310 311 585 256 578 255 686 383 582 334 635 500 591 554 676 473 450 424 627 584 658 561 665 472 424 446 627 210 195 184 663 92 105 136 562 92 136 12 422 465 455 565 671 475 457 456 650 426 164 38 195 444 443 446 627 397 54 355 160 356 134 570 622 217 149 415 568 334 582 354 631 510 605 561 625 566 592 501 599 331 328 572 597 427 80 325 296 551 492 571 681 433 607 520 650 160 355 563 596 419 381 613 683 453 452 454 577 169 170 158 600 417 381 613 675 350 352 325 594 498 531 632 642 244 584 243 658 486 644 642 645 340 308 311 560 52 398 197 362 125 579 124 623 404 415 149 568 376 583 377 675 407 356 570 622 256 273 641 643 240 258 241 640 99 155 143 570 23 139 364 395 200 170 190 600 245 549 258 670 558 657 647 665 177 599 588 662 415 366 206 568 390 401 571 641 465 455 427 565 343 94 148 293 92 562 422 610 307 349 339 626 308 309 310 585 342 574 318 612 449 461 471 562 13 100 461 136 415 206 217 568 191 590 516 684 397 363 55 199 295 324 567 683 517 589 119 680 228 286 288 572 571 581 513 664 581 640 513 664 308 309 585 609 458 481 564 663 125 127 600 674 263 617 242 625 278 581 256 641 140 149 167 568 86 300 365 383 199 209 185 563 191 682 192 684 355 400 397 563 262 272 232 656 269 279 247 569 295 324 301 567 315 316 312 593 129 527 97 674 203 175 179 556 561 584 495 617 445 442 448 601 299 346 430 580 482 420 464 669 126 132 579 684 497 583 557 621 342 518 612 678 146 126 95 684 334 631 354 635 545 588 498 619 556 588 179 599 95 200 19 146 198 40 157 464 173 172 614 648 522 647 496 651 500 528 645 677 252 574 615 658 94 343 145 646 548 591 500 676 174 173 175 648 340 307 308 626 394 380 409 608 86 334 300 383 357 383 385 582 133 100 132 682 288 286 253 572 295 323 324 683 231 275 287 668 291 574 226 597 278 581 641 664 383 385 582 635 99 134 155 570 474 422 449 562 234 578 255 592 160 185 211 563 185 563 209 637 342 668 518 678 219 566 162 656 177 189 599 662 244 251 246 615 267 226 68 291 171 173 614 648 186 578 637 686 346 336 150 580 539 646 121 660 331 294 332 572 495 530 617 672 87 357 290 334 395 24 99 134 136 461 12 422 439 460 442 559 54 397 199 160 323 297 680 685 261 358 74 410 459 430 468 580 427 296 565 678 444 616 553 627 333 316 351 593 303 302 304 629 265 566 236 656 533 632 619 672 113 128 555 674 331 328 294 572 517 680 119 685 244 246 242 561 198 166 41 669 285 574 252 658 534 494 647 665 144 97 129 527 545 619 498 632 509 623 600 674 566 606 514 656 311 318 560 612 363 401 402 643 334 354 300 635 318 340 311 560 126 132 124 579 234 255 235 592 404 149 102 568 513 634 571 654 407 356 382 570 246 263 242 625 186 220 578 686 554 591 500 628 222 219 162 656 492 632 545 681 284 249 286 597 498 632 533 642 201 176 173 648 330 318 342 574 92 104 105 636 334 87 357 383 308 307 306 609 451 577 453 616 388 390 401 571 111 115 114 591 177 189 183 599 135 359 27 102 329 574 291 597 510 625 561 638 225 235 236 592 102 144 156 568 286 572 260 597 112 113 110 628 377 557 613 675 139 23 99 395 100 431 13 461 188 203 179 606 165 55 363 199 411 583 376 675 362 197 52 163 361 393 384 575 301 567 324 673 92 610 104 636 271 69 330 267 547 618 501 672 373 396 377 557 418 357 582 673 389 571 654 664 201 598 532 655 395 406 382 570 333 310 312 593 557 583 497 652 464 198 41 669 155 153 116 622 298 271 69 330 456 435 607 650 410 75 224 264 101 150 336 580 155 570 134 622 51 163 206 366 223 605 266 667 410 74 261 224 420 157 604 663 262 265 236 656 186 221 220 686 263 530 617 625 428 41 166 669 421 434 594 607 334 303 354 582 436 453 455 671 251 615 275 667 464 41 428 669 515 637 563 681 227 408 73 664 344 292 321 680 474 457 463 610 495 584 561 665 146 200 19 161 417 567 673 675 230 255 578 686 315 293 341 539 392 375 374 654 354 582 303 631 164 37 469 426 417 360 567 683 186 637 578 662 501 619 599 662 225 236 265 566 499 534 644 649 178 545 637 662 350 565 296 678 355 399 400 596 381 406 419 613 194 213 181 655 247 263 269 625 208 188 606 669 176 588 175 648 246 251 276 605 320 292 319 620 404 27 359 102 439 438 603 624 186 578 220 662 119 589 117 680 430 478 468 580 417 418 379 675 538 603 438 624 9 98 425 141 108 137 111 591 186 637 221 686 210 203 188 604 543 512 631 635 317 350 296 678 547 611 581 640 67 226 260 597 179 588 177 599 176 175 173 648 68 330 267 291 103 104 610 659 462 451 453 616 417 673 418 675 171 170 169 614 533 498 619 632 290 302 582 673 571 634 551 654 338 323 683 685 163 51 362 366 176 178 177 588 193 230 578 686 286 260 284 597 46 159 234 592 302 301 324 673 137 591 548 660 175 177 179 588 109 125 124 623 196 159 46 592 230 256 255 686 574 597 508 658 313 319 315 620 67 260 328 597 172 190 170 614 248 581 250 640 212 191 182 590 174 184 182 602 257 643 256 686 448 471 485 601 174 175 203 602 141 425 9 468 457 438 456 603 387 400 399 630 222 208 187 606 357 290 582 673 513 654 571 664 500 645 529 677 225 196 46 592 439 438 460 603 233 264 76 405 408 358 73 664 530 625 569 638 81 289 421 594 511 646 539 660 447 466 482 576 403 683 419 685 250 278 261 664 429 667 231 668 417 419 360 683 195 164 212 564 543 631 582 635 404 367 366 568 193 578 220 686 389 571 388 654 556 599 179 606 251 275 266 667 193 220 221 686 482 447 576 669 117 143 114 589 498 588 556 619 331 329 328 597 167 206 194 568 208 198 188 669 577 518 615 667 227 641 408 664 235 237 236 618 191 207 192 682 157 604 198 669 342 612 317 678 368 399 398 596 120 121 646 660 319 343 293 646 358 389 391 664 101 123 141 580 420 39 157 663 46 234 225 592 325 289 81 594 440 444 462 616 221 643 205 686 515 637 578 686 372 387 370 630 180 202 211 598 278 641 227 664 403 419 364 685 338 297 323 685 237 238 239 618 329 318 291 574 235 255 238 618 141 150 101 580 431 469 485 682 499 644 535 649 325 81 465 594 124 105 106 636 469 207 37 164 257 273 256 643 576 514 606 669 380 371 369 608 569 625 510 638 81 421 465 594 452 423 476 667 72 402 408 641 248 278 250 581 106 104 107 636 495 534 657 665 227 73 261 664 205 221 165 643 72 408 227 641 251 605 615 667 465 594 434 671 182 190 172 590 125 623 128 674 290 357 88 673 266 231 62 667 513 611 549 640 190 590 191 684 550 634 513 654 75 410 361 264 187 179 599 606 223 423 476 61 16 140 167 168 435 434 607 671 515 581 571 641 421 433 434 607 171 173 172 614 492 611 537 634 300 332 337 633 420 458 39 663 389 390 571 664 53 398 355 596 140 144 102 568 402 72 273 641 160 53 355 596 227 273 72 641 204 166 222 656 544 497 639 652 604 606 188 669 266 62 476 667 555 628 595 666 128 623 555 674 398 53 197 596 290 302 303 582 198 208 166 669 577 615 605 667 127 129 97 674 500 628 555 666 113 112 131 595 292 343 319 646 399 368 370 630 107 636 104 659 503 551 630 681 96 119 117 680 461 449 422 562 429 62 231 667 199 185 160 563 281 480 231 668 94 32 145 343 554 628 500 666 244 615 561 658 157 210 604 663 553 616 510 627 576 606 604 669 16 140 168 97 415 404 366 568 198 604 188 669 287 275 252 615 32 292 145 343 258 549 640 670 343 94 33 148 429 476 62 667 103 138 104 659 290 88 301 673 476 266 223 61 176 201 180 598 517 613 567 683 256 278 248 581 391 393 361 575 109 110 128 623 113 129 128 674 501 592 578 662 206 167 217 568 142 119 680 685 322 321 320 573 251 266 605 667 465 434 455 671 264 361 76 405 341 299 353 580 254 245 258 670 382 356 395 570 125 126 124 579 145 292 31 344 411 376 379 675 111 110 108 628 497 542 639 652 513 640 549 670 160 197 53 596 507 594 565 671 130 131 154 595 388 389 390 571 278 256 227 641 161 190 191 684 480 429 231 668 158 200 18 600 417 379 381 675 312 316 333 593 133 20 192 684 261 73 358 664 414 365 345 633 565 612 518 678 451 452 453 577 456 435 433 607 376 377 379 675 480 335 470 668 386 88 357 673 502 673 567 675 402 641 273 643 504 610 562 636 234 230 255 578 291 226 67 597 127 125 128 674 300 345 365 633 229 424 58 467 377 613 381 675 335 480 347 668 195 157 39 663 379 377 381 675 555 623 509 674 94 120 121 646 304 305 306 629 435 436 434 671 148 33 343 293 413 214 363 643 482 484 447 669 195 39 458 663 456 607 433 650 63 281 480 231 200 95 18 600 140 102 149 568 411 379 418 675 96 145 31 344 133 146 20 684 258 640 277 670 147 158 18 600 93 25 394 622 95 125 127 600 290 303 334 582 386 301 88 673 183 187 179 599 202 598 201 655 133 192 682 684 291 67 328 597 240 248 250 640 214 165 363 643 119 143 117 589 406 381 382 613 278 227 261 664 155 134 153 622 161 192 20 684 450 446 424 627 104 636 610 659 100 151 479 682 327 309 306 609 548 660 591 676 272 229 58 467 242 239 241 617 130 113 131 595 573 589 517 680 145 118 94 646 256 273 227 641 177 178 189 662 330 291 318 574 342 335 668 678 496 647 558 651 507 585 593 661 431 100 479 682 374 372 373 621 122 107 138 659 250 277 258 640 320 313 327 620 11 103 92 610 480 429 63 231 157 195 210 663 335 470 668 678 448 449 471 601 591 660 511 676 571 641 581 664 495 657 558 665 160 211 197 596 103 11 463 610 161 20 146 684 134 25 93 622 178 637 186 662 283 257 205 643 152 412 139 685 390 641 571 664 516 590 579 684 414 280 405 633 283 205 214 643 412 364 139 685 275 231 266 667 18 95 147 600 336 148 34 101 405 280 233 633 380 369 409 608 244 243 268 658 30 344 297 680 375 389 388 654 297 142 680 685 437 439 440 624 408 641 390 664 214 56 413 363 479 100 14 151 418 417 386 673 478 430 84 346 149 217 15 167 345 64 270 337 377 382 381 613 422 11 92 610 344 30 96 680 192 151 133 682 480 470 429 668 270 288 233 633 345 337 270 633 215 469 479 682 346 299 336 580 338 403 348 685 336 299 341 580 481 483 445 663 48 204 162 656 293 148 34 336 151 192 215 682 184 203 210 602 460 457 474 603 442 449 448 601 363 214 56 165 14 431 100 479 348 403 412 685 402 273 413 643 433 459 456 650 484 464 428 669 126 133 132 684 401 390 402 641 335 78 480 470 434 594 607 671 342 335 298 668 139 119 142 685 290 301 302 673 78 480 347 335 283 413 273 643 22 152 412 139 207 469 215 682 454 452 429 667 103 104 92 610 475 456 459 650 139 412 22 364 30 297 142 680 232 282 49 204 134 356 25 622 140 149 15 167 504 610 636 659 204 48 232 656 188 198 157 604 122 121 120 660 408 390 358 664 205 43 283 214 282 216 49 204 91 412 348 403 280 345 64 270 215 36 479 469 158 170 200 600 338 91 348 403 521 593 585 661 205 43 257 283 271 231 287 668 202 180 201 598 588 599 556 619 389 358 390 664 356 394 25 622 30 142 96 680 366 206 50 415 280 345 270 633 281 271 70 668 48 162 265 656 191 192 161 684 468 8 141 150 225 234 235 592 415 149 28 404 477 282 57 272 217 50 206 415 8 468 478 150 296 342 317 678 276 269 246 625 266 223 251 605 175 176 177 588 422 463 11 610 36 215 207 469 430 299 84 346 302 305 304 629 252 615 244 658 458 483 481 663 239 242 263 617 346 336 35 150 120 94 118 646 414 365 85 345 437 438 439 624 470 335 79 678 365 300 85 345 421 434 465 594 329 349 340 626 112 110 111 628 385 384 416 635 189 186 220 662 311 317 318 612 308 306 309 609 224 254 277 670 257 205 643 686 101 35 336 150 21 133 192 151 151 192 21 215 373 372 371 621 347 281 70 668 272 57 477 467 404 149 28 102 321 323 297 680 268 285 252 658 507 607 594 671 202 201 181 655 348 142 297 685 427 470 79 678 360 90 295 683 122 120 137 660 414 77 405 280 354 339 332 631 178 186 189 662 183 179 177 599 77 233 405 280 142 348 152 685 338 683 403 685 427 79 296 678 171 172 170 614 159 196 218 592 482 464 484 669 48 265 232 656 159 45 46 234 462 444 451 616 67 260 66 328 226 284 260 597 421 81 82 289 44 205 257 686 111 137 115 591 450 444 446 627 402 273 71 413 339 354 303 631 237 235 238 618 44 193 205 686 360 403 90 683 273 71 413 283 188 179 187 606 433 435 434 607 182 191 190 590 365 414 405 633 398 399 355 596 289 325 352 594 244 252 251 615 196 46 47 225 338 90 403 683 335 296 79 678 375 392 389 654 252 244 268 658 188 187 208 606 65 228 294 66 106 105 104 636 185 186 178 637 250 258 240 640 44 230 193 686 280 414 345 633 342 318 317 612 19 18 200 95 251 252 275 615 29 142 348 152 349 307 340 626 139 22 23 364 483 458 420 663 184 174 203 602 142 297 29 348 128 125 109 623 338 295 90 683 460 438 457 603 186 209 221 637 96 142 119 680 269 263 246 625 195 39 38 458 295 90 360 89 93 25 26 394 431 13 14 100 56 55 363 165 427 454 470 678 232 265 262 656 89 88 386 301 370 387 399 630 281 347 480 668 325 81 80 465 398 53 52 197 103 11 10 463 407 394 356 622 429 63 231 62 413 283 214 643 230 257 256 686 210 188 157 604 358 73 261 74 335 342 296 678 198 41 40 464 85 300 365 86 290 357 87 88 55 54 397 199 251 223 276 605 461 12 13 136 134 93 153 622 326 432 83 82 230 44 257 686 313 320 319 620 422 474 463 610 87 334 86 383 20 21 133 192 402 413 363 643 359 27 26 135 47 48 162 265 418 386 357 673 127 147 95 600 69 330 267 68 323 295 338 683 50 51 206 366 428 41 42 166 151 215 479 682 427 79 80 296 299 83 430 84 157 40 39 420 348 297 338 685 45 44 230 193 434 436 455 671 92 12 11 422 384 383 365 635 271 70 298 69 355 54 53 160 470 335 78 79 5 413 283 214 0 478 346 150 6 281 347 480 151 1 479 215 280 414 7 345 282 4 216 477 2 217 149 415 100 133 151 682 99 23 24 395 412 152 348 685 152 348 3 412 390 408 402 641 328 329 291 597 476 429 452 667 38 37 164 426 71 273 402 72 214 205 165 643 404 28 27 102 10 9 98 425 141 9 8 468 168 17 16 97 146 133 126 684 49 48 232 204 76 75 361 264 257 44 43 205 58 59 424 229 76 77 233 405 107 104 138 659 185 209 186 637 226 68 291 67 61 223 423 60 479 469 431 682 64 270 337 65 300 337 345 633 412 403 364 685 383 384 385 635 90 91 338 403 321 297 344 680 258 277 254 670 213 202 181 655 362 52 51 163 127 128 129 674 37 36 207 469 347 298 335 668 25 24 356 134 273 257 283 643 204 222 162 656 142 152 139 685 15 16 140 167 215 192 207 682 270 233 280 633 60 473 59 259 158 18 17 147 216 49 4 282 283 43 5 214 149 28 2 415 347 281 6 70 7 280 345 64 412 348 3 91 217 15 2 149 1 36 479 215 282 57 4 477 2 50 217 415 478 0 8 150 478 84 0 346 480 347 6 78 336 34 35 101 94 33 32 343 58 57 272 467 31 32 292 145 231 271 281 668 148 34 33 293 221 205 193 686 419 403 360 683 31 30 96 344 346 35 0 150 29 30 297 142 3 29 348 152 19 20 146 161 408 72 227 73 414 7 77 280 14 1 479 151 5 56 413 214 4 42 216 477 6 281 480 63 152 3 22 412 151 21 1 215 413 71 5 283 414 85 7 345 266 476 62 61 74 410 75 224 633 264 274 233 633 274 264 512 557 407 608 396 557 608 407 505 562 100 132 136 562 132 100 516 543 675 582 502 582 675 543 411 643 209 563 515 587 663 564 445 564 663 587 506 636 493 579 562 636 579 493 546 643 199 209 165 643 209 199 563 626 558 647 508 626 647 558 496 596 598 563 211 563 598 596 503 629 324 540 567 629 540 324 305 674 130 113 129 674 113 130 595 685 99 119 517 685 119 99 139 670 274 264 254 670 264 274 575 650 457 523 475 650 523 457 603 610 523 457 475 610 457 523 603 593 620 313 315 313 620 593 521 605 627 451 450 451 627 605 510 166 477 42 428 42 477 166 216 631 586 487 526 631 487 586 512 632 598 503 531 632 503 598 545 574 668 342 330 342 668 574 518 682 164 191 207 682 191 164 516 575 416 378 393 575 378 416 543 655 169 194 527 655 194 169 181 665 510 638 534 665 638 510 561 580 148 121 539 580 121 148 101 631 331 526 339 631 526 331 572 626 526 331 339 626 331 526 572 259 423 60 473 259 60 423 223 471 682 461 431 461 682 471 516 673 360 417 386 673 417 360 567 635 416 575 384 635 575 416 543 679 182 536 590 679 536 182 602 486 534 533 644 533 534 486 657 406 685 395 364 395 685 406 517 669 472 428 484 669 428 472 514 645 666 554 500 554 666 645 544 645 524 554 544 624 435 552 437 624 552 435 538 451 627 444 450 444 627 451 616 294 270 633 228 294 633 270 337 683 406 613 419 683 613 406 517 678 429 667 454 678 667 429 668 671 538 507 607 671 507 538 552 612 350 678 565 612 678 350 317 646 315 293 319 646 293 315 539 565 678 577 454 565 577 678 518 667 577 678 454 667 678 577 518 599 219 592 183 599 592 219 566 622 131 116 595 622 116 131 153 676 645 554 500 676 554 645 524 658 284 285 597 658 285 284 268 282 204 656 216 656 204 282 232 601 481 485 448 601 485 481 564 187 656 219 222 219 656 187 566 662 218 220 189 662 220 218 592 395 134 570 356 570 134 395 99 115 660 137 120 137 660 115 591 613 417 683 381 613 683 417 567 158 97 17 168 158 17 97 147 424 259 59 473 59 259 424 229 410 264 575 361 575 264 410 224 70 668 298 347 298 668 70 271 0 150 8 35 150 0 14 151 1 1 151 21 15 149 2 2 149 28 22 152 3 3 152 29 8 141 9 8 150 141 9 98 10 9 141 98 10 103 11 98 103 10 11 92 12 11 103 92 12 136 13 92 136 12 13 100 14 13 136 100 100 151 14 16 140 15 140 149 15 17 97 16 97 140 16 18 147 17 17 147 97 19 95 18 95 147 18 20 146 19 19 146 95 21 133 20 133 146 20 21 151 133 23 139 22 139 152 22 24 99 23 99 139 23 25 134 24 24 134 99 26 93 25 93 134 25 27 135 26 26 135 93 28 102 27 102 135 27 28 149 102 29 142 30 29 152 142 30 96 31 30 142 96 31 145 32 96 145 31 32 94 33 32 145 94 33 148 34 94 148 33 34 101 35 34 148 101 101 150 35 103 104 92 104 105 92 105 136 92 93 153 134 135 154 93 93 154 153 118 120 94 94 145 118 120 121 94 121 148 94 95 126 125 125 127 95 95 146 126 127 147 95 117 118 96 96 119 117 118 145 96 96 142 119 127 129 97 97 147 127 129 144 97 97 144 140 98 138 103 123 138 98 98 141 123 119 139 99 99 143 119 134 155 99 99 155 143 132 133 100 100 136 132 133 151 100 121 123 101 101 148 121 123 141 101 141 150 101 102 156 135 140 144 102 102 149 140 144 156 102 103 138 104 104 106 105 104 107 106 104 138 107 106 124 105 124 132 105 132 136 105 107 108 106 108 109 106 109 124 106 107 137 108 122 137 107 107 138 122 108 110 109 108 111 110 108 137 111 110 128 109 109 125 124 109 128 125 111 112 110 112 113 110 113 128 110 111 114 112 111 115 114 111 137 115 112 131 113 114 116 112 116 131 112 113 129 128 113 130 129 113 131 130 115 117 114 114 143 116 117 143 114 115 118 117 115 120 118 115 137 120 116 153 131 143 155 116 116 155 153 119 143 117 119 142 139 120 122 121 120 137 122 122 123 121 122 138 123 125 126 124 126 132 124 125 128 127 126 133 132 126 146 133 128 129 127 130 144 129 131 154 130 130 156 144 154 156 130 153 154 131 153 155 134 135 156 154 142 152 139 21 215 1 1 215 36 2 217 15 50 217 2 42 216 4 4 216 49 43 214 5 5 214 56 15 167 16 15 217 167 16 168 17 167 168 16 17 158 18 17 168 158 18 200 19 158 200 18 19 161 20 19 200 161 20 192 21 161 192 20 192 215 21 36 207 37 36 215 207 37 164 38 37 207 164 38 195 39 164 195 38 39 157 40 39 195 157 40 198 41 157 198 40 41 166 42 41 198 166 166 216 42 44 205 43 205 214 43 45 193 44 193 205 44 46 159 45 159 193 45 47 196 46 46 196 159 48 162 47 162 196 47 49 204 48 48 204 162 49 216 204 51 206 50 206 217 50 52 163 51 163 206 51 53 197 52 52 197 163 54 160 53 160 197 53 55 199 54 54 199 160 56 165 55 165 199 55 56 214 165 188 198 157 157 210 188 195 210 157 168 169 158 169 170 158 170 200 158 159 220 193 196 218 159 218 220 159 160 199 185 185 211 160 160 211 197 190 191 161 161 200 190 191 192 161 162 219 196 204 222 162 162 222 219 194 206 163 163 213 194 197 213 163 164 207 191 191 212 164 164 212 195 165 209 199 165 214 205 205 221 165 165 221 209 198 208 166 204 216 166 166 222 204 208 222 166 167 194 168 167 206 194 167 217 206 168 194 169 169 171 170 169 181 171 169 194 181 171 172 170 172 190 170 190 200 170 171 173 172 171 201 173 181 201 171 173 174 172 174 182 172 182 190 172 173 175 174 173 176 175 173 201 176 175 203 174 174 184 182 174 203 184 176 177 175 177 179 175 179 203 175 176 178 177 176 180 178 176 201 180 178 189 177 177 183 179 177 189 183 180 185 178 185 186 178 186 189 178 183 187 179 187 188 179 188 203 179 180 211 185 201 202 180 202 211 180 194 213 181 181 202 201 181 213 202 184 212 182 182 191 190 182 212 191 183 219 187 189 218 183 218 219 183 184 210 195 195 212 184 203 210 184 185 209 186 199 209 185 186 220 189 209 221 186 186 221 220 187 208 188 187 222 208 219 222 187 188 208 198 188 210 203 189 220 218 191 207 192 207 215 192 193 221 205 220 221 193 196 219 218 197 211 202 202 213 197 49 282 4 4 282 57 5 283 43 71 283 5 63 281 6 6 281 70 64 280 7 7 280 77 43 257 44 43 283 257 44 230 45 44 257 230 45 234 46 230 234 45 46 225 47 46 234 225 47 265 48 225 265 47 48 232 49 48 265 232 232 282 49 57 272 58 57 282 272 58 229 59 58 272 229 59 259 60 229 259 59 60 223 61 60 259 223 61 266 62 223 266 61 62 231 63 62 266 231 231 281 63 65 270 64 270 280 64 66 228 65 228 270 65 67 260 66 66 260 228 68 226 67 226 260 67 69 267 68 68 267 226 70 271 69 69 271 267 70 281 271 72 273 71 273 283 71 73 227 72 227 273 72 74 261 73 73 261 227 75 224 74 224 261 74 76 264 75 75 264 224 77 233 76 233 264 76 77 280 233 251 266 223 223 276 251 259 276 223 224 264 254 254 277 224 224 277 261 234 235 225 235 236 225 236 265 225 226 284 260 267 285 226 226 285 284 256 273 227 227 278 256 261 278 227 260 286 228 228 288 270 286 288 228 229 279 259 229 272 262 262 279 229 230 255 234 230 256 255 230 257 256 266 275 231 271 281 231 231 287 271 275 287 231 232 265 262 262 272 232 272 282 232 233 274 264 233 280 270 270 288 233 233 288 274 234 255 235 235 237 236 235 238 237 235 255 238 237 247 236 247 262 236 262 265 236 238 239 237 239 263 237 237 263 247 238 240 239 238 248 240 238 255 248 240 241 239 241 242 239 242 263 239 240 258 241 248 250 240 250 258 240 241 243 242 241 245 243 241 258 245 243 244 242 244 246 242 246 263 242 243 268 244 245 249 243 249 268 243 244 251 246 244 252 251 244 268 252 245 253 249 245 254 253 245 258 254 251 276 246 246 269 263 246 276 269 247 279 262 263 269 247 269 279 247 248 278 250 255 256 248 256 278 248 253 286 249 249 284 268 249 286 284 250 277 258 261 277 250 250 278 261 252 275 251 251 275 266 268 285 252 252 287 275 285 287 252 254 274 253 274 288 253 253 288 286 258 277 254 264 274 254 257 273 256 257 283 273 269 276 259 259 279 269 284 286 260 271 287 267 267 287 285 284 285 268 0 346 35 84 346 0 29 348 3 3 348 91 70 347 6 6 347 78 7 345 64 85 345 7 30 297 29 297 348 29 31 344 30 30 344 297 32 292 31 292 344 31 33 343 32 32 343 292 34 293 33 293 343 33 35 336 34 34 336 293 35 346 336 64 337 65 64 345 337 65 294 66 65 337 294 66 328 67 294 328 66 67 291 68 67 328 291 68 330 69 291 330 68 69 298 70 69 330 298 298 347 70 78 335 79 78 347 335 79 296 80 79 335 296 80 325 81 296 325 80 81 289 82 81 325 289 82 326 83 289 326 82 83 299 84 83 326 299 299 346 84 86 300 85 300 345 85 87 334 86 86 334 300 88 290 87 290 334 87 89 301 88 88 301 290 90 295 89 295 301 89 91 338 90 90 338 295 91 348 338 325 352 289 289 351 326 289 352 351 301 302 290 302 303 290 303 334 290 291 329 318 318 330 291 328 329 291 319 320 292 292 343 319 320 321 292 321 344 292 315 319 293 293 341 315 319 343 293 336 341 293 294 331 328 294 332 331 294 337 332 295 324 301 323 324 295 295 338 323 296 342 317 317 350 296 296 350 325 335 342 296 321 323 297 297 344 321 323 338 297 338 348 297 330 342 298 298 342 335 335 347 298 326 353 299 299 341 336 336 346 299 299 353 341 332 337 300 300 354 332 334 354 300 337 345 300 301 324 302 302 304 303 302 305 304 302 324 305 304 339 303 303 354 334 339 354 303 305 306 304 306 307 304 307 339 304 305 327 306 305 324 322 322 327 305 306 308 307 306 309 308 306 327 309 308 340 307 307 349 339 340 349 307 309 310 308 310 311 308 311 340 308 309 312 310 309 313 312 309 327 313 310 314 311 312 333 310 310 333 314 314 317 311 317 318 311 318 340 311 313 315 312 315 316 312 316 333 312 313 319 315 313 320 319 313 327 320 314 350 317 333 352 314 314 352 350 315 341 316 316 351 333 341 353 316 316 353 351 317 342 318 329 340 318 318 342 330 320 322 321 320 327 322 322 323 321 322 324 323 350 352 325 351 353 326 328 331 329 331 349 329 329 349 340 332 339 331 339 349 331 332 354 339 351 352 333 415 2 28 415 50 2 412 22 3 412 3 91 413 5 56 413 71 5 414 7 77 414 85 7 364 23 22 412 364 22 395 24 23 395 23 364 356 25 24 395 356 24 394 26 25 394 25 356 359 27 26 394 359 26 404 28 27 404 27 359 415 28 404 366 51 50 415 366 50 362 52 51 366 362 51 398 53 52 398 52 362 355 54 53 398 355 53 397 55 54 397 54 355 363 56 55 397 363 55 413 56 363 402 72 71 413 402 71 408 73 72 408 72 402 358 74 73 408 358 73 410 75 74 410 74 358 361 76 75 410 361 75 405 77 76 405 76 361 414 77 405 365 86 85 414 365 85 383 87 86 383 86 365 357 88 87 383 357 87 386 89 88 386 88 357 360 90 89 386 360 89 403 91 90 403 90 360 412 91 403 400 397 355 399 355 398 400 355 399 395 382 356 407 356 382 407 394 356 385 357 383 418 357 385 418 386 357 390 389 358 391 358 389 408 390 358 410 358 391 404 359 367 409 367 359 409 359 394 417 360 386 419 403 360 419 360 417 393 384 361 405 361 384 393 361 391 410 391 361 367 362 366 368 362 367 398 362 368 401 363 397 402 363 401 413 363 402 406 395 364 412 403 364 419 364 403 419 406 364 384 383 365 405 384 365 414 405 365 404 367 366 415 404 366 369 368 367 409 369 367 370 368 369 399 368 370 399 398 368 371 370 369 380 371 369 409 380 369 372 370 371 387 370 372 399 370 387 373 372 371 396 373 371 396 371 380 374 372 373 375 372 374 387 372 375 376 374 373 377 376 373 396 377 373 392 375 374 378 374 376 392 374 378 388 387 375 389 388 375 392 389 375 379 376 377 411 378 376 411 376 379 381 379 377 382 381 377 396 382 377 411 385 378 416 378 385 393 392 378 416 393 378 417 379 381 418 411 379 418 379 417 407 380 394 409 394 380 407 396 380 406 381 382 419 381 406 419 417 381 406 382 395 407 382 396 385 383 384 416 385 384 416 384 393 418 385 411 418 417 386 400 387 388 400 399 387 390 388 389 401 388 390 401 400 388 392 391 389 402 401 390 408 402 390 393 391 392 401 397 400 8 478 0 0 478 84 1 479 14 36 479 1 4 477 42 57 477 4 6 480 63 78 480 6 9 468 8 468 478 8 10 425 9 425 468 9 11 463 10 10 463 425 12 422 11 422 463 11 13 461 12 12 461 422 14 431 13 431 461 13 14 479 431 37 469 36 469 479 36 38 426 37 426 469 37 39 458 38 38 458 426 40 420 39 420 458 39 41 464 40 40 464 420 42 428 41 428 464 41 42 477 428 58 467 57 467 477 57 59 424 58 424 467 58 60 473 59 59 473 424 61 423 60 423 473 60 62 476 61 61 476 423 63 429 62 429 476 62 63 480 429 79 470 78 470 480 78 80 427 79 427 470 79 81 465 80 80 465 427 82 421 81 421 465 81 83 432 82 82 432 421 84 430 83 430 432 83 84 478 430 420 483 458 464 482 420 482 483 420 432 433 421 433 434 421 434 465 421 422 461 449 449 474 422 422 474 463 423 451 450 450 473 423 423 452 451 423 476 452 424 450 446 446 472 424 424 473 450 424 472 467 459 468 425 425 475 459 463 475 425 458 481 426 426 485 469 481 485 426 427 455 454 454 470 427 427 465 455 428 484 464 467 472 428 428 477 467 472 484 428 429 454 452 452 476 429 429 470 454 429 480 470 430 459 432 430 468 459 430 478 468 431 471 461 431 479 469 469 485 431 431 485 471 432 459 433 433 435 434 433 456 435 433 459 456 435 436 434 436 455 434 455 465 434 435 437 436 435 438 437 435 456 438 437 462 436 453 455 436 436 462 453 438 439 437 439 440 437 440 462 437 438 460 439 456 457 438 457 460 438 439 441 440 439 442 441 439 460 442 441 443 440 443 444 440 444 462 440 442 445 441 441 466 443 445 466 441 442 448 445 442 449 448 442 460 449 443 446 444 443 447 446 443 466 447 446 450 444 450 451 444 451 462 444 448 481 445 445 483 466 481 483 445 447 472 446 466 482 447 447 484 472 482 484 447 449 471 448 471 485 448 448 485 481 460 474 449 461 471 449 452 453 451 453 462 451 452 454 453 454 455 453 456 475 457 459 475 456 457 474 460 463 474 457 457 475 463 458 483 481 464 484 482 466 483 482 
</DataArray>
<DataArray type="Int32" Name="offsets" format="ascii" >
4 8 12 16 20 24 28 32 36 40 44 48 52 56 60 64 68 72 76 80 84 88 92 96 100 104 108 112 116 120 124 128 132 136 140 144 148 152 156 160 164 168 172 176 180 184 188 192 196 200 204 208 212 216 220 224 228 232 236 240 244 248 252 256 260 264 268 272 276 280 284 288 292 296 300 304 308 312 316 320 324 328 332 336 340 344 348 352 356 360 364 368 372 376 380 384 388 392 396 400 404 408 412 416 420 424 428 432 436 440 444 448 452 456 460 464 468 472 476 480 484 488 492 496 500 504 508 512 516 520 524 528 532 536 540 544 548 552 556 560 564 568 572 576 580 584 588 592 596 600 604 608 612 616 620 624 628 632 636 640 644 648 652 656 660 664 668 672 676 680 684 688 692 696 700 704 708 712 716 720 724 728 732 736 740 744 748 752 756 760 764 768 772 776 780 784 788 792 796 800 804 808 812 816 820 824 828 832 836 840 844 848 852 856 860 864 868 872 876 880 884 888 892 896 900 904 908 912 916 920 924 928 932 936 940 944 948 952 956 960 964 968 972 976 980 984 988 992 996 1000 1004 1008 1012 1016 1020 1024 1028 1032 1036 1040 1044 1048 1052 1056 1060 1064 1068 1072 1076 1080 1084 1088 1092 1096 1100 1104 1108 1112 1116 1120 1124 1128 1132 1136 1140 1144 1148 1152 1156 1160 1164 1168 1172 1176 1180 1184 1188 1192 1196 1200 1204 1208 1212 1216 1220 1224 1228 1232 1236 1240 1244 1248 1252 1256 1260 1264 1268 1272 1276 1280 1284 1288 1292 1296 1300 1304 1308 1312 1316 1320 1324 1328 1332 1336 1340 1344 1348 1352 1356 1360 1364 1368 1372 1376 1380 1384 1388 1392 1396 1400 1404 1408 1412 1416 1420 1424 1428 1432 1436 1440 1444 1448 1452 1456 1460 1464 1468 1472 1476 1480 1484 1488 1492 1496 1500 1504 1508 1512 1516 1520 1524 1528 1532 1536 1540 1544 1548 1552 1556 1560 1564 1568 1572 1576 1580 1584 1588 1592 1596 1600 1604 1608 1612 1616 1620 1624 1628 1632 1636 1640 1644 1648 1652 1656 1660 1664 1668 1672 1676 1680 1684 1688 1692 1696 1700 1704 1708 1712 1716 1720 1724 1728 1732 1736 1740 1744 1748 1752 1756 1760 1764 1768 1772 1776 1780 1784 1788 1792 1796 1800 1804 1808 1812 1816 1820 1824 1828 1832 1836 1840 1844 1848 1852 1856 1860 1864 1868 1872 1876 1880 1884 1888 1892 1896 1900 1904 1908 1912 1916 1920 1924 1928 1932 1936 1940 1944 1948 1952 1956 1960 1964 1968 1972 1976 1980 1984 1988 1992 1996 2000 2004 2008 2012 2016 2020 2024 2028 2032 2036 2040 2044 2048 2052 2056 2060 2064 2068 2072 2076 2080 2084 2088 2092 2096 2100 2104 2108 2112 2116 2120 2124 2128 2132 2136 2140 2144 2148 2152 2156 2160 2164 2168 2172 2176 2180 2184 2188 2192 2196 2200 2204 2208 2212 2216 2220 2224 2228 2232 2236 2240 2244 2248 2252 2256 2260 2264 2268 2272 2276 2280 2284 2288 2292 2296 2300 2304 2308 2312 2316 2320 2324 2328 2332 2336 2340 2344 2348 2352 2356 2360 2364 2368 2372 2376 2380 2384 2388 2392 2396 2400 2404 2408 2412 2416 2420 2424 2428 2432 2436 2440 2444 2448 2452 2456 2460 2464 2468 2472 2476 2480 2484 2488 2492 2496 2500 2504 2508 2512 2516 2520 2524 2528 2532 2536 2540 2544 2548 2552 2556 2560 2564 2568 2572 2576 2580 2584 2588 2592 2596 2600 2604 2608 2612 2616 2620 2624 2628 2632 2636 2640 2644 2648 2652 2656 2660 2664 2668 2672 2676 2680 2684 2688 2692 2696 2700 2704 2708 2712 2716 2720 2724 2728 2732 2736 2740 2744 2748 2752 2756 2760 2764 2768 2772 2776 2780 2784 2788 2792 2796 2800 2804 2808 2812 2816 2820 2824 2828 2832 2836 2840 2844 2848 2852 2856 2860 2864 2868 2872 2876 2880 2884 2888 2892 2896 2900 2904 2908 2912 2916 2920 2924 2928 2932 2936 2940 2944 2948 2952 2956 2960 2964 2968 2972 2976 2980 2984 2988 2992 2996 3000 3004 3008 3012 3016 3020 3024 3028 3032 3036 3040 3044 3048 3052 3056 3060 3064 3068 3072 3076 3080 3084 3088 3092 3096 3100 3104 3108 3112 3116 3120 3124 3128 3132 3136 3140 3144 3148 3152 3156 3160 3164 3168 3172 3176 3180 3184 3188 3192 3196 3200 3204 3208 3212 3216 3220 3224 3228 3232 3236 3240 3244 3248 3252 3256 3260 3264 3268 3272 3276 3280 3284 3288 3292 3296 3300 3304 3308 3312 3316 3320 3324 3328 3332 3336 3340 3344 3348 3352 3356 3360 3364 3368 3372 3376 3380 3384 3388 3392 3396 3400 3404 3408 3412 3416 3420 3424 3428 3432 3436 3440 3444 3448 3452 3456 3460 3464 3468 3472 3476 3480 3484 3488 3492 3496 3500 3504 3508 3512 3516 3520 3524 3528 3532 3536 3540 3544 3548 3552 3556 3560 3564 3568 3572 3576 3580 3584 3588 3592 3596 3600 3604 3608 3612 3616 3620 3624 3628 3632 3636 3640 3644 3648 3652 3656 3660 3664 3668 3672 3676 3680 3684 3688 3692 3696 3700 3704 3708 3712 3716 3720 3724 3728 3732 3736 3740 3744 3748 3752 3756 3760 3764 3768 3772 3776 3780 3784 3788 3792 3796 3800 3804 3808 3812 3816 3820 3824 3828 3832 3836 3840 3844 3848 3852 3856 3860 3864 3868 3872 3876 3880 3884 3888 3892 3896 3900 3904 3908 3912 3916 3920 3924 3928 3932 3936 3940 3944 3948 3952 3956 3960 3964 3968 3972 3976 3980 3984 3988 3992 3996 4000 4004 4008 4012 4016 4020 4024 4028 4032 4036 4040 4044 4048 4052 4056 4060 4064 4068 4072 4076 4080 4084 4088 4092 4096 4100 4104 4108 4112 4116 4120 4124 4128 4132 4136 4140 4144 4148 4152 4156 4160 4164 4168 4172 4176 4180 4184 4188 4192 4196 4200 4204 4208 4212 4216 4220 4224 4228 4232 4236 4240 4244 4248 4252 4256 4260 4264 4268 4272 4276 4280 4284 4288 4292 4296 4300 4304 4308 4312 4316 4320 4324 4328 4332 4336 4340 4344 4348 4352 4356 4360 4364 4368 4372 4376 4380 4384 4388 4392 4396 4400 4404 4408 4412 4416 4420 4424 4428 4432 4436 4440 4444 4448 4452 4456 4460 4464 4468 4472 4476 4480 4484 4488 4492 4496 4500 4504 4508 4512 4516 4520 4524 4528 4532 4536 4540 4544 4548 4552 4556 4560 4564 4568 4572 4576 4580 4584 4588 4592 4596 4600 4604 4608 4612 4616 4620 4624 4628 4632 4636 4640 4644 4648 4652 4656 4660 4664 4668 4672 4676 4680 4684 4688 4692 4696 4700 4704 4708 4712 4716 4720 4724 4728 4732 4736 4740 4744 4748 4752 4756 4760 4764 4768 4772 4776 4780 4784 4788 4792 4796 4800 4804 4808 4812 4816 4820 4824 4828 4832 4836 4840 4844 4848 4852 4856 4860 4864 4868 4872 4876 4880 4884 4888 4892 4896 4900 4904 4908 4912 4916 4920 4924 4928 4932 4936 4940 4944 4948 4952 4956 4960 4964 4968 4972 4976 4980 4984 4988 4992 4996 5000 5004 5008 5012 5016 5020 5024 5028 5032 5036 5040 5044 5048 5052 5056 5060 5064 5068 5072 5076 5080 5084 5088 5092 5096 5100 5104 5108 5112 5116 5120 5124 5128 5132 5136 5140 5144 5148 5152 5156 5160 5164 5168 5172 5176 5180 5184 5188 5192 5196 5200 5204 5208 5212 5216 5220 5224 5228 5232 5236 5240 5244 5248 5252 5256 5260 5264 5268 5272 5276 5280 5284 5288 5292 5296 5300 5304 5308 5312 5316 5320 5324 5328 5332 5336 5340 5344 5348 5352 5356 5360 5364 5368 5372 5376 5380 5384 5388 5392 5396 5400 5404 5408 5412 5416 5420 5424 5428 5432 5436 5440 5444 5448 5452 5456 5460 5464 5468 5472 5476 5480 5484 5488 5492 5496 5500 5504 5508 5512 5516 5520 5524 5528 5532 5536 5540 5544 5548 5552 5556 5560 5564 5568 5572 5576 5580 5584 5588 5592 5596 5600 5604 5608 5612 5616 5620 5624 5628 5632 5636 5640 5644 5648 5652 5656 5660 5664 5668 5672 5676 5680 5684 5688 5692 5696 5700 5704 5708 5712 5716 5720 5724 5728 5732 5736 5740 5744 5748 5752 5756 5760 5764 5768 5772 5776 5780 5784 5788 5792 5796 5800 5804 5808 5812 5816 5820 5824 5828 5832 5836 5840 5844 5848 5852 5856 5860 5864 5868 5872 5876 5880 5884 5888 5892 5896 5900 5904 5908 5912 5916 5920 5924 5928 5932 5936 5940 5944 5948 5952 5956 5960 5964 5968 5972 5976 5980 5984 5988 5992 5996 6000 6004 6008 6012 6016 6020 6024 6028 6032 6036 6040 6044 6048 6052 6056 6060 6064 6068 6072 6076 6080 6084 6088 6092 6096 6100 6104 6108 6112 6116 6120 6124 6128 6132 6136 6140 6144 6148 6152 6156 6160 6164 6168 6172 6176 6180 6184 6188 6192 6196 6200 6204 6208 6212 6216 6220 6224 6228 6232 6236 6240 6244 6248 6252 6256 6260 6264 6268 6272 6276 6280 6284 6288 6292 6296 6300 6304 6308 6312 6316 6320 6324 6328 6332 6336 6340 6344 6348 6352 6356 6360 6364 6368 6372 6376 6380 6384 6388 6392 6396 6400 6404 6408 6412 6416 6420 6424 6428 6432 6436 6440 6444 6448 6452 6456 6460 6464 6468 6472 6476 6480 6484 6488 6492 6496 6500 6504 6508 6512 6516 6520 6524 6528 6532 6536 6540 6544 6548 6552 6556 6560 6564 6568 6572 6576 6580 6584 6588 6592 6596 6600 6604 6608 6612 6616 6620 6624 6628 6632 6636 6640 6644 6648 6652 6656 6660 6664 6668 6672 6676 6680 6684 6688 6692 6696 6700 6704 6708 6712 6716 6720 6724 6728 6732 6736 6740 6744 6748 6752 6756 6760 6764 6768 6772 6776 6780 6784 6788 6792 6796 6800 6804 6808 6812 6816 6820 6824 6828 6832 6836 6840 6844 6848 6852 6856 6860 6864 6868 6872 6876 6880 6884 6888 6892 6896 6900 6904 6908 6912 6916 6920 6924 6928 6932 6936 6940 6944 6948 6952 6956 6960 6964 6968 6972 6976 6980 6984 6988 6992 6996 7000 7004 7008 7012 7016 7020 7024 7028 7032 7036 7040 7044 7048 7052 7056 7060 7064 7068 7072 7076 7080 7084 7088 7092 7096 7100 7104 7108 7112 7116 7120 7124 7128 7132 7136 7140 7144 7148 7152 7156 7160 7164 7168 7172 7176 7180 7184 7188 7192 7196 7200 7204 7208 7212 7216 7220 7224 7228 7232 7236 7240 7244 7248 7252 7256 7260 7264 7268 7272 7276 7280 7284 7288 7292 7296 7300 7304 7308 7312 7316 7320 7324 7328 7332 7336 7340 7344 7348 7352 7356 7360 7364 7368 7372 7376 7380 7384 7388 7392 7396 7400 7404 7408 7412 7416 7420 7424 7428 7432 7436 7440 7444 7448 7452 7456 7460 7464 7468 7472 7476 7480 7484 7488 7492 7496 7500 7504 7508 7512 7516 7520 7524 7528 7532 7536 7540 7544 7548 7552 7556 7560 7564 7568 7572 7576 7580 7584 7588 7592 7596 7600 7604 7608 7612 7616 7620 7624 7628 7632 7636 7640 7644 7648 7652 7656 7660 7664 7668 7672 7676 7680 7684 7688 7692 7696 7700 7704 7708 7712 7716 7720 7724 7728 7732 7736 7740 7744 7748 7752 7756 7760 7764 7768 7772 7776 7780 7784 7788 7792 7796 7800 7804 7808 7812 7816 7820 7824 7828 7832 7836 7840 7844 7848 7852 7856 7860 7864 7868 7872 7876 7880 7884 7888 7892 7896 7900 7904 7908 7912 7916 7920 7924 7928 7932 7936 7940 7944 7948 7952 7956 7960 7964 7968 7972 7976 7980 7984 7988 7992 7996 8000 8004 8008 8012 8016 8020 8024 8028 8032 8036 8040 8044 8048 8052 8056 8060 8064 8068 8072 8076 8080 8084 8088 8092 8096 8100 8104 8108 8112 8116 8120 8124 8128 8132 8136 8140 8144 8148 8152 8156 8160 8164 8168 8172 8176 8180 8184 8188 8192 8196 8200 8204 8208 8212 8216 8220 8224 8228 8232 8236 8240 8244 8248 8252 8256 8260 8264 8268 8272 8276 8280 8284 8288 8292 8296 8300 8304 8308 8312 8316 8320 8324 8328 8332 8336 8340 8344 8348 8352 8356 8360 8364 8368 8372 8376 8380 8384 8388 8392 8396 8400 8404 8408 8412 8416 8420 8424 8428 8432 8436 8440 8444 8448 8452 8456 8460 8464 8468 8472 8476 8480 8484 8488 8492 8496 8500 8504 8508 8512 8516 8520 8524 8528 8532 8536 8540 8544 8548 8552 8556 8560 8564 8568 8572 8576 8580 8584 8588 8592 8596 8600 8604 8608 8612 8616 8620 8624 8628 8632 8636 8640 8644 8648 8652 8656 8660 8664 8668 8672 8676 8680 8684 8688 8692 8696 8700 8704 8708 8712 8716 8720 8724 8728 8732 8736 8740 8744 8748 8752 8756 8760 8764 8768 8772 8776 8780 8784 8788 8792 8796 8800 8804 8808 8812 8816 8820 8824 8828 8832 8836 8840 8844 8848 8852 8856 8860 8864 8868 8872 8876 8880 8884 8888 8892 8896 8900 8904 8908 8912 8916 8920 8924 8928 8932 8936 8940 8944 8948 8952 8956 8960 8964 8968 8972 8976 8980 8984 8988 8992 8996 9000 9004 9008 9012 9016 9020 9024 9028 9032 9036 9040 9044 9048 9052 9056 9060 9064 9068 9072 9076 9080 9084 9088 9092 9096 9100 9104 9108 9112 9116 9120 9124 9128 9132 9136 9140 9144 9148 9152 9156 9160 9164 9168 9172 9176 9180 9184 9188 9192 9196 9200 9204 9208 9212 9216 9220 9224 9228 9232 9236 9240 9244 9248 9252 9256 9260 9264 9268 9272 9276 9280 9284 9288 9292 9296 9300 9304 9308 9312 9316 9320 9324 9328 9332 9336 9340 9344 9348 9352 9356 9360 9364 9368 9372 9376 9380 9384 9388 9392 9396 9400 9404 9408 9412 9416 9420 9424 9428 9432 9436 9440 9444 9448 9452 9456 9460 9464 9468 9472 9476 9480 9484 9488 9492 9496 9500 9504 9508 9512 9516 9520 9524 9528 9532 9536 9540 9544 9548 9552 9556 9560 9564 9568 9572 9576 9580 9584 9588 9592 9596 9600 9604 9608 9612 9616 9620 9624 9628 9632 9636 9640 9644 9648 9652 9656 9660 9664 9668 9672 9676 9680 9684 9688 9692 9696 9700 9704 9708 9712 9716 9720 9724 9728 9732 9736 9740 9744 9748 9752 9756 9760 9764 9768 9772 9776 9780 9784 9788 9792 9796 9800 9804 9808 9812 9816 9820 9824 9828 9832 9836 9840 9844 9848 9852 9856 9860 9864 9868 9872 9876 9880 9884 9888 9892 9896 9900 9904 9908 9912 9916 9920 9924 9928 9932 9936 9940 9944 9948 9952 9956 9960 9964 9968 9972 9976 9980 9984 9988 9992 9996 10000 10004 10008 10012 10016 10020 10024 10028 10032 10036 10040 10044 10048 10052 10056 10060 10064 10068 10072 10076 10080 10084 10088 10092 10096 10100 10104 10108 10112 10116 10120 10124 10128 10132 10136 10140 10144 10148 10152 10156 10160 10164 10168 10172 10176 10180 10184 10188 10192 10196 10200 10204 10208 10212 10216 10220 10224 10228 10232 10236 10240 10244 10248 10252 10256 10260 10264 10268 10272 10276 10280 10284 10288 10292 10296 10300 10304 10308 10311 10314 10317 10320 10323 10326 10329 10332 10335 10338 10341 10344 10347 10350 10353 10356 10359 10362 10365 10368 10371 10374 10377 10380 10383 10386 10389 10392 10395 10398 10401 10404 10407 10410 10413 10416 10419 10422 10425 10428 10431 10434 10437 10440 10443 10446 10449 10452 10455 10458 10461 10464 10467 10470 10473 10476 10479 10482 10485 10488 10491 10494 10497 10500 10503 10506 10509 10512 10515 10518 10521 10524 10527 10530 10533 10536 10539 10542 10545 10548 10551 10554 10557 10560 10563 10566 10569 10572 10575 10578 10581 10584 10587 10590 10593 10596 10599 10602 10605 10608 10611 10614 10617 10620 10623 10626 10629 10632 10635 10638 10641 10644 10647 10650 10653 10656 10659 10662 10665 10668 10671 10674 10677 10680 10683 10686 10689 10692 10695 10698 10701 10704 10707 10710 10713 10716 10719 10722 10725 10728 10731 10734 10737 10740 10743 10746 10749 10752 10755 10758 10761 10764 10767 10770 10773 10776 10779 10782 10785 10788 10791 10794 10797 10800 10803 10806 10809 10812 10815 10818 10821 10824 10827 10830 10833 10836 10839 10842 10845 10848 10851 10854 10857 10860 10863 10866 10869 10872 10875 10878 10881 10884 10887 10890 10893 10896 10899 10902 10905 10908 10911 10914 10917 10920 10923 10926 10929 10932 10935 10938 10941 10944 10947 10950 10953 10956 10959 10962 10965 10968 10971 10974 10977 10980 10983 10986 10989 10992 10995 10998 11001 11004 11007 11010 11013 11016 11019 11022 11025 11028 11031 11034 11037 11040 11043 11046 11049 11052 11055 11058 11061 11064 11067 11070 11073 11076 11079 11082 11085 11088 11091 11094 11097 11100 11103 11106 11109 11112 11115 11118 11121 11124 11127 11130 11133 11136 11139 11142 11145 11148 11151 11154 11157 11160 11163 11166 11169 11172 11175 11178 11181 11184 11187 11190 11193 11196 11199 11202 11205 11208 11211 11214 11217 11220 11223 11226 11229 11232 11235 11238 11241 11244 11247 11250 11253 11256 11259 11262 11265 11268 11271 11274 11277 11280 11283 11286 11289 11292 11295 11298 11301 11304 11307 11310 11313 11316 11319 11322 11325 11328 11331 11334 11337 11340 11343 11346 11349 11352 11355 11358 11361 11364 11367 11370 11373 11376 11379 11382 11385 11388 11391 11394 11397 11400 11403 11406 11409 11412 11415 11418 11421 11424 11427 11430 11433 11436 11439 11442 11445 11448 11451 11454 11457 11460 11463 11466 11469 11472 11475 11478 11481 11484 11487 11490 11493 11496 11499 11502 11505 11508 11511 11514 11517 11520 11523 11526 11529 11532 11535 11538 11541 11544 11547 11550 11553 11556 11559 11562 11565 11568 11571 11574 11577 11580 11583 11586 11589 11592 11595 11598 11601 11604 11607 11610 11613 11616 11619 11622 11625 11628 11631 11634 11637 11640 11643 11646 11649 11652 11655 11658 11661 11664 11667 11670 11673 11676 11679 11682 11685 11688 11691 11694 11697 11700 11703 11706 11709 11712 11715 11718 11721 11724 11727 11730 11733 11736 11739 11742 11745 11748 11751 11754 11757 11760 11763 11766 11769 11772 11775 11778 11781 11784 11787 11790 11793 11796 11799 11802 11805 11808 11811 11814 11817 11820 11823 11826 11829 11832 11835 11838 11841 11844 11847 11850 11853 11856 11859 11862 11865 11868 11871 11874 11877 11880 11883 11886 11889 11892 11895 11898 11901 11904 11907 11910 11913 11916 11919 11922 11925 11928 11931 11934 11937 11940 11943 11946 11949 11952 11955 11958 11961 11964 11967 11970 11973 11976 11979 11982 11985 11988 11991 11994 11997 12000 12003 12006 12009 12012 12015 12018 12021 12024 12027 12030 12033 12036 12039 12042 12045 12048 12051 12054 12057 12060 12063 12066 12069 12072 12075 12078 12081 12084 12087 12090 12093 12096 12099 12102 12105 12108 12111 12114 12117 12120 12123 12126 12129 12132 12135 12138 12141 12144 12147 12150 12153 12156 12159 12162 12165 12168 12171 12174 12177 12180 12183 12186 12189 12192 12195 12198 12201 12204 12207 12210 12213 12216 12219 12222 12225 12228 12231 12234 12237 12240 12243 12246 12249 12252 12255 12258 12261 12264 12267 12270 12273 12276 12279 12282 12285 12288 12291 12294 12297 12300 12303 12306 12309 12312 12315 12318 12321 12324 12327 12330 12333 12336 12339 12342 12345 12348 12351 12354 12357 12360 12363 12366 12369 12372 12375 12378 12381 12384 12387 12390 12393 12396 12399 12402 12405 12408 12411 12414 12417 12420 12423 12426 12429 12432 12435 12438 12441 12444 12447 12450 12453 12456 12459 12462 12465 12468 12471 12474 12477 12480 12483 12486 12489 12492 12495 12498 12501 12504 12507 12510 12513 12516 12519 12522 12525 12528 12531 12534 12537 12540 12543 12546 12549 12552 12555 12558 12561 12564 12567 12570 12573 12576 12579 12582 12585 12588 12591 12594 12597 12600 12603 12606 12609 12612 12615 12618 12621 12624 12627 12630 12633 12636 12639 12642 12645 12648 12651 12654 12657 12660 12663 12666 12669 12672 12675 12678 12681 12684 12687 12690 12693 12696 12699 12702 12705 12708 12711 12714 12717 12720 12723 12726 12729 12732 12735 12738 12741 12744 12747 12750 12753 12756 12759 12762 12765 12768 12771 12774 12777 12780 12783 12786 12789 12792 12795 12798 12801 12804 12807 12810 12813 12816 12819 12822 12825 12828 12831 12834 12837 12840 12843 12846 12849 12852 12855 12858 12861 12864 12867 12870 12873 12876 12879 12882 12885 12888 12891 12894 12897 12900 12903 12906 12909 12912 12915 12918 12921 12924 12927 12930 12933 12936 12939 12942 12945 12948 12951 12954 12957 12960 12963 12966 12969 12972 12975 12978 12981 12984 12987 12990 12993 12996 12999 13002 13005 13008 13011 13014 13017 13020 13023 13026 13029 13032 13035 13038 13041 13044 13047 13050 13053 13056 13059 13062 13065 13068 13071 13074 13077 13080 13083 13086 13089 13092 13095 13098 13101 13104 13107 13110 13113 13116 13119 13122 13125 13128 13131 13134 13137 13140 13143 13146 13149 13152 13155 13158 13161 13164 13167 13170 13173 13176 13179 13182 13185 13188 13191 13194 13197 13200 13203 13206 13209 13212 
</DataArray>
<DataArray type="UInt8" Name="types" format="ascii" >
10 10 10 10 10 10 10 10 10 10 10 10 10 10 10 10 10 10 10 10 10 10 10 10 10 10 10 10 10 10 10 10 10 10 10 10 10 10 10 10 10 10 10 10 10 10 10 10 10 10 10 10 10 10 10 10 10 10 10 10 10 10 10 10 10 10 10 10 10 10 10 10 10 10 10 10 10 10 10 10 10 10 10 10 10 10 10 10 10 10 10 10 10 10 10 10 10 10 10 10 10 10 10 10 10 10 10 10 10 10 10 10 10 10 10 10 10 10 10 10 10 10 10 10 10 10 10 10 10 10 10 10 10 10 10 10 10 10 10 10 10 10 10 10 10 10 10 10 10 10 10 10 10 10 10 10 10 10 10 10 10 10 10 10 10 10 10 10 10 10 10 10 10 10 10 10 10 10 10 10 10 10 10 10 10 10 10 10 10 10 10 10 10 10 10 10 10 10 10 10 10 10 10 10 10 10 10 10 10 10 10 10 10 10 10 10 10 10 10 10 10 10 10 10 10 10 10 10 10 10 10 10 10 10 10 10 10 10 10 10 10 10 10 10 10 10 10 10 10 10 10 10 10 10 10 10 10 10 10 10 10 10 10 10 10 10 10 10 10 10 10 10 10 10 10 10 10 10 10 10 10 10 10 10 10 10 10 10 10 10 10 10 10 10 10 10 10 10 10 10 10 10 10 10 10 10 10 10 10 10 10 10 10 10 10 10 10 10 10 10 10 10 10 10 10 10 10 10 10 10 10 10 10 10 10 10 10 10 10 10 10 10 10 10 10 10 10 10 10 10 10 10 10 10 10 10 10 10 10 10 10 10 10 10 10 10 10 10 10 10 10 10 10 10 10 10 10 10 10 10 10 10 10 10 10 10 10 10 10 10 10 10 10 10 10 10 10 10 10 10 10 10 10 10 10 10 10 10 10 10 10 10 10 10 10 10 10 10 10 10 10 10 10 10 10 10 10 10 10 10 10 10 10 10 10 10 10 10 10 10 10 10 10 10 10 10 10 10 10 10 10 10 10 10 10 10 10 10 10 10 10 10 10 10 10 10 10 10 10 10 10 10 10 10 10 10 10 10 10 10 10 10 10 10 10 10 10 10 10 10 10 10 10 10 10 10 10 10 10 10 10 10 10 10 10 10 10 10 10 10 10 10 10 10 10 10 10 10 10 10 10 10 10 10 10 10 10 10 10 10 10 10 10 10 10 10 10 10 10 10 10 10 10 10 10 10 10 10 10 10 10 10 10 10 10 10 10 10 10 10 10 10 10 10 10 10 10 10 10 10 10 10 10 10 10 10 10 10 10 10 10 10 10 10 10 10 10 10 10 10 10 10 10 10 10 10 10 10 10 10 10 10 10 10 10 10 10 10 10 10 10 10 10 10 10 10 10 10 10 10 10 10 10 10 10 10 10 10 10 10 10 10 10 10 10 10 10 10 10 10 10 10 10 10 10 10 10 10 10 10 10 10 10 10 10 10 10 10 10 10 10 10 10 10 10 10 10 10 10 10 10 10 10 10 10 10 10 10 10 10 10 10 10 10 10 10 10 10 10 10 10 10 10 10 10 10 10 10 10 10 10 10 10 10 10 10 10 10 10 10 10 10 10 10 10 10 10 10 10 10 10 10 10 10 10 10 10 10 10 10 10 10 10 10 10 10 10 10 10 10 10 10 10 10 10 10 10 10 10 10 10 10 10 10 10 10 10 10 10 10 10 10 10 10 10 10 10 10 10 10 10 10 10 10 10 10 10 10 10 10 10 10 10 10 10 10 10 10 10 10 10 10 10 10 10 10 10 10 10 10 10 10 10 10 10 10 10 10 10 10 10 10 10 10 10 10 10 10 10 10 10 10 10 10 10 10 10 10 10 10 10 10 10 10 10 10 10 10 10 10 10 10 10 10 10 10 10 10 10 10 10 10 10 10 10 10 10 10 10 10 10 10 10 10 10 10 10 10 10 10 10 10 10 10 10 10 10 10 10 10 10 10 10 10 10 10 10 10 10 10 10 10 10 10 10 10 10 10 10 10 10 10 10 10 10 10 10 10 10 10 10 10 10 10 10 10 10 10 10 10 10 10 10 10 10 10 10 10 10 10 10 10 10 10 10 10 10 10 10 10 10 10 10 10 10 10 10 10 10 10 10 10 10 10 10 10 10 10 10 10 10 10 10 10 10 10 10 10 10 10 10 10 10 10 10 10 10 10 10 10 10 10 10 10 10 10 10 10 10 10 10 10 10 10 10 10 10 10 10 10 10 10 10 10 10 10 10 10 10 10 10 10 10 10 10 10 10 10 10 10 10 10 10 10 10 10 10 10 10 10 10 10 10 10 10 10 10 10 10 10 10 10 10 10 10 10 10 10 10 10 10 10 10 10 10 10 10 10 10 10 10 10 10 10 10 10 10 10 10 10 10 10 10 10 10 10 10 10 10 10 10 10 10 10 10 10 10 10 10 10 10 10 10 10 10 10 10 10 10 10 10 10 10 10 10 10 10 10 10 10 10 10 10 10 10 10 10 10 10 10 10 10 10 10 10 10 10 10 10 10 10 10 10 10 10 10 10 10 10 10 10 10 10 10 10 10 10 10 10 10 10 10 10 10 10 10 10 10 10 10 10 10 10 10 10 10 10 10 10 10 10 10 10 10 10 10 10 10 10 10 10 10 10 10 10 10 10 10 10 10 10 10 10 10 10 10 10 10 10 10 10 10 10 10 10 10 10 10 10 10 10 10 10 10 10 10 10 10 10 10 10 10 10 10 10 10 10 10 10 10 10 10 10 10 10 10 10 10 10 10 10 10 10 10 10 10 10 10 10 10 10 10 10 10 10 10 10 10 10 10 10 10 10 10 10 10 10 10 10 10 10 10 10 10 10 10 10 10 10 10 10 10 10 10 10 10 10 10 10 10 10 10 10 10 10 10 10 10 10 10 10 10 10 10 10 10 10 10 10 10 10 10 10 10 10 10 10 10 10 10 10 10 10 10 10 10 10 10 10 10 10 10 10 10 10 10 10 10 10 10 10 10 10 10 10 10 10 10 10 10 10 10 10 10 10 10 10 10 10 10 10 10 10 10 10 10 10 10 10 10 10 10 10 10 10 10 10 10 10 10 10 10 10 10 10 10 10 10 10 10 10 10 10 10 10 10 10 10 10 10 10 10 10 10 10 10 10 10 10 10 10 10 10 10 10 10 10 10 10 10 10 10 10 10 10 10 10 10 10 10 10 10 10 10 10 10 10 10 10 10 10 10 10 10 10 10 10 10 10 10 10 10 10 10 10 10 10 10 10 10 10 10 10 10 10 10 10 10 10 10 10 10 10 10 10 10 10 10 10 10 10 10 10 10 10 10 10 10 10 10 10 10 10 10 10 10 10 10 10 10 10 10 10 10 10 10 10 10 10 10 10 10 10 10 10 10 10 10 10 10 10 10 10 10 10 10 10 10 10 10 10 10 10 10 10 10 10 10 10 10 10 10 10 10 10 10 10 10 10 10 10 10 10 10 10 10 10 10 10 10 10 10 10 10 10 10 10 10 10 10 10 10 10 10 10 10 10 10 10 10 10 10 10 10 10 10 10 10 10 10 10 10 10 10 10 10 10 10 10 10 10 10 10 10 10 10 10 10 10 10 10 10 10 10 10 10 10 10 10 10 10 10 10 10 10 10 10 10 10 10 10 10 10 10 10 10 10 10 10 10 10 10 10 10 10 10 10 10 10 10 10 10 10 10 10 10 10 10 10 10 10 10 10 10 10 10 10 10 10 10 10 10 10 10 10 10 10 10 10 10 10 10 10 10 10 10 10 10 10 10 10 10 10 10 10 10 10 10 10 10 10 10 10 10 10 10 10 10 10 10 10 10 10 10 10 10 10 10 10 10 10 10 10 10 10 10 10 10 10 10 10 10 10 10 10 10 10 10 10 10 10 10 10 10 10 10 10 10 10 10 10 10 10 10 10 10 10 10 10 10 10 10 10 10 10 10 10 10 10 10 10 10 10 10 10 10 10 10 10 10 10 10 10 10 10 10 10 10 10 10 10 10 10 10 10 10 10 10 10 10 10 10 10 10 10 10 10 10 10 10 10 10 10 10 10 10 10 10 10 10 10 10 10 10 10 10 10 10 10 10 10 10 10 10 10 10 10 10 10 10 10 10 10 10 10 10 10 10 10 10 10 10 10 10 10 10 10 10 10 10 10 10 10 10 10 10 10 10 10 10 10 10 10 10 10 10 10 10 10 10 10 10 10 10 10 10 10 10 10 10 10 10 10 10 10 10 10 10 10 10 10 10 10 10 10 10 10 10 10 10 10 10 10 10 10 10 10 10 10 10 10 10 10 10 10 10 10 10 10 10 10 10 10 10 10 10 10 10 10 10 10 10 10 10 10 10 10 10 10 10 10 10 10 10 10 10 10 10 10 10 10 10 10 10 10 10 10 10 10 10 10 10 10 10 10 10 10 10 10 10 10 10 10 10 10 10 10 10 10 10 10 10 10 10 10 10 10 10 10 10 10 10 10 10 10 10 10 10 10 10 10 10 10 10 10 10 10 10 10 10 10 10 10 10 10 10 10 10 10 10 10 10 10 10 10 10 10 10 10 10 10 10 10 10 10 10 10 10 10 10 10 10 10 10 10 10 10 10 10 10 10 10 10 10 10 10 10 10 10 10 10 10 10 10 10 10 10 10 10 10 10 10 10 10 10 10 10 10 10 10 10 10 10 10 10 10 10 10 10 10 10 10 10 10 10 10 10 10 10 10 10 10 10 10 10 10 10 10 10 10 10 10 10 10 10 10 10 10 10 10 10 10 10 10 10 10 10 10 10 10 10 10 10 10 10 10 10 10 10 10 10 10 10 10 10 10 10 10 10 10 10 10 10 10 10 10 10 10 10 10 10 10 10 10 10 10 10 10 10 10 10 10 10 10 10 10 10 10 10 10 10 10 10 10 10 10 10 10 10 10 10 10 10 10 10 10 10 10 10 10 10 10 10 10 10 10 10 10 10 10 10 10 10 10 10 10 10 10 10 10 10 10 10 10 10 10 10 10 10 10 10 10 10 10 10 10 10 10 10 10 10 10 10 10 10 10 10 10 10 10 10 10 10 10 10 10 10 10 10 10 10 10 10 10 10 10 10 10 10 10 10 10 10 10 10 10 10 10 10 10 10 10 10 10 10 10 10 10 10 10 10 10 10 10 10 10 10 10 10 10 10 10 10 10 10 10 10 10 10 10 10 10 10 10 10 10 10 10 10 10 10 10 10 10 10 10 10 10 10 10 10 10 10 10 10 10 10 10 10 10 10 10 10 10 10 10 10 10 10 10 10 10 10 10 10 10 10 10 10 10 10 10 10 10 10 10 10 10 10 10 10 10 10 10 10 10 10 10 10 10 10 10 10 10 10 10 10 10 10 10 10 10 10 10 10 10 10 10 10 10 10 10 10 10 10 10 10 10 10 10 10 10 10 10 10 10 10 10 10 10 10 10 10 10 10 10 10 10 10 10 10 10 10 10 10 10 10 10 10 10 10 10 10 10 10 10 10 10 10 10 10 10 10 10 10 10 10 10 10 10 10 10 10 10 10 10 10 10 10 10 10 10 10 10 10 10 10 10 10 10 10 10 10 10 10 10 10 10 10 10 10 10 10 10 10 10 10 10 10 10 10 10 10 10 10 10 10 10 10 10 10 10 10 10 10 10 10 10 10 10 10 10 10 10 10 10 10 10 10 10 10 10 10 10 10 10 10 10 10 10 10 10 10 10 10 10 10 10 10 10 10 10 10 10 10 10 10 10 10 10 10 10 10 10 10 10 10 5 5 5 5 5 5 5 5 5 5 5 5 5 5 5 5 5 5 5 5 5 5 5 5 5 5 5 5 5 5 5 5 5 5 5 5 5 5 5 5 5 5 5 5 5 5 5 5 5 5 5 5 5 5 5 5 5 5 5 5 5 5 5 5 5 5 5 5 5 5 5 5 5 5 5 5 5 5 5 5 5 5 5 5 5 5 5 5 5 5 5 5 5 5 5 5 5 5 5 5 5 5 5 5 5 5 5 5 5 5 5 5 5 5 5 5 5 5 5 5 5 5 5 5 5 5 5 5 5 5 5 5 5 5 5 5 5 5 5 5 5 5 5 5 5 5 5 5 5 5 5 5 5 5 5 5 5 5 5 5 5 5 5 5 5 5 5 5 5 5 5 5 5 5 5 5 5 5 5 5 5 5 5 5 5 5 5 5 5 5 5 5 5 5 5 5 5 5 5 5 5 5 5 5 5 5 5 5 5 5 5 5 5 5 5 5 5 5 5 5 5 5 5 5 5 5 5 5 5 5 5 5 5 5 5 5 5 5 5 5 5 5 5 5 5 5 5 5 5 5 5 5 5 5 5 5 5 5 5 5 5 5 5 5 5 5 5 5 5 5 5 5 5 5 5 5 5 5 5 5 5 5 5 5 5 5 5 5 5 5 5 5 5 5 5 5 5 5 5 5 5 5 5 5 5 5 5 5 5 5 5 5 5 5 5 5 5 5 5 5 5 5 5 5 5 5 5 5 5 5 5 5 5 5 5 5 5 5 5 5 5 5 5 5 5 5 5 5 5 5 5 5 5 5 5 5 5 5 5 5 5 5 5 5 5 5 5 5 5 5 5 5 5 5 5 5 5 5 5 5 5 5 5 5 5 5 5 5 5 5 5 5 5 5 5 5 5 5 5 5 5 5 5 5 5 5 5 5 5 5 5 5 5 5 5 5 5 5 5 5 5 5 5 5 5 5 5 5 5 5 5 5 5 5 5 5 5 5 5 5 5 5 5 5 5 5 5 5 5 5 5 5 5 5 5 5 5 5 5 5 5 5 5 5 5 5 5 5 5 5 5 5 5 5 5 5 5 5 5 5 5 5 5 5 5 5 5 5 5 5 5 5 5 5 5 5 5 5 5 5 5 5 5 5 5 5 5 5 5 5 5 5 5 5 5 5 5 5 5 5 5 5 5 5 5 5 5 5 5 5 5 5 5 5 5 5 5 5 5 5 5 5 5 5 5 5 5 5 5 5 5 5 5 5 5 5 5 5 5 5 5 5 5 5 5 5 5 5 5 5 5 5 5 5 5 5 5 5 5 5 5 5 5 5 5 5 5 5 5 5 5 5 5 5 5 5 5 5 5 5 5 5 5 5 5 5 5 5 5 5 5 5 5 5 5 5 5 5 5 5 5 5 5 5 5 5 5 5 5 5 5 5 5 5 5 5 5 5 5 5 5 5 5 5 5 5 5 5 5 5 5 5 5 5 5 5 5 5 5 5 5 5 5 5 5 5 5 5 5 5 5 5 5 5 5 5 5 5 5 5 5 5 5 5 5 5 5 5 5 5 5 5 5 5 5 5 5 5 5 5 5 5 5 5 5 5 5 5 5 5 5 5 5 5 5 5 5 5 5 5 5 5 5 5 5 5 5 5 5 5 5 5 5 5 5 5 5 5 5 5 5 5 5 5 5 5 5 5 5 5 5 5 5 5 5 5 5 5 5 5 5 5 5 5 5 5 5 5 5 5 5 5 5 5 5 5 5 5 5 5 5 5 5 5 5 5 5 5 5 5 5 5 5 5 5 5 5 5 5 5 5 5 5 5 5 5 5 5 5 5 5 5 5 5 5 5 5 5 5 5 5 5 5 5 5 5 5 5 5 5 5 5 5 5 5 5 5 5 5 5 5 5 5 5 5 5 5 5 5 5 5 5 5 5 5 5 5 5 5 5 5 5 5 5 5 5 5 5 5 5 5 5 5 5 5 5 5 5 5 5 5 5 5 5 5 5 5 5 5 5 5 5 5 5 5 5 5 5 5 5 5 5 5 5 5 5 5 5 5 5 5 5 5 5 5 5 5 5 5 5 5 5 5 5 5 5 5 5 5 5 5 5 5 5 5 5 5 5 5 5 5 5 5 5 5 5 5 5 5 5 5 5 5 5 5 5 5 5 5 5 5 5 5 5 5 5 5 5 
</DataArray>
</Cells>
<CellData Scalars="Label">
<DataArray type="Int32" Name="Label" format="ascii">
1
1
1
1
1
1
1
1
1
1
1
1
1
1
1
1
1
1
1
1
1
1
1
1
1
1
1
1
1
1
1
1
1
1
1
1
1
1
1
1
1
1
1
1
1
1
1
1
1
1
1
1
1
1
1
1
1
1
1
1
1
1
1
1
1
1
1
1
1
1
1
1
1
1
1
1
1
1
1
1
1
1
1
1
1
1
1
1
1
1
1
1
1
1
1
1
1
1
1
1
1
1
1
1
1
1
1
1
1
1
1
1
1
1
1
1
1
1
1
1
1
1
1
1
1
1
1
1
1
1
1
1
1
1
1
1
1
1
1
1
1
1
1
1
1
1
1
1
1
1
1
1
1
1
1
1
1
1
1
1
1
1
1
1
1
1
1
1
1
1
1
1
1
1
1
1
1
1
1
1
1
1
1
1
1
1
1
1
1
1
1
1
1
1
1
1
1
1
1
1
1
1
1
1
1
1
1
1
1
1
1
1
1
1
1
1
1
1
1
1
1
1
1
1
1
1
1
1
1
1
1
1
1
1
1
1
1
1
1
1
1
1
1
1
1
1
1
1
1
1
1
1
1
1
1
1
1
1
1
1
1
1
1
1
1
1
1
1
1
1
1
1
1
1
1
1
1
1
1
1
1
1
1
1
1
1
1
1
1
1
1
1
1
1
1
1
1
1
1
1
1
1
1
1
1
1
1
1
1
1
1
1
1
1
1
1
1
1
1
1
1
1
1
1
1
1
1
1
1
1
1
1
1
1
1
1
1
1
1
1
1
1
1
1
1
1
1
1
1
1
1
1
1
1
1
1
1
1
1
1
1
1
1
1
1
1
1
1
1
1
1
1
1
1
1
1
1
1
1
1
1
1
1
1
1
1
1
1
1
1
1
1
1
1
1
1
1
1
1
1
1
1
1
1
1
1
1
1
1
1
1
1
1
1
1
1
1
1
1
1
1
1
1
1
1
1
1
1
1
1
1
1
1
1
1
1
1
1
1
1
1
1
1
1
1
1
1
1
1
1
1
1
1
1
1
1
1
1
1
1
1
1
1
1
1
1
1
1
1
1
1
1
1
1
1
1
1
1
1
1
1
1
1
1
1
1
1
1
1
1
1
1
1
1
1
1
1
1
1
1
1
1
1
1
1
1
1
1
1
1
1
1
1
1
1
1
1
1
1
1
1
1
1
1
1
1
1
1
1
1
1
1
1
1
1
1
1
1
1
1
1
1
1
1
1
1
1
1
1
1
1
1
1
1
1
1
1
1
1
1
1
1
1
1
1
1
1
1
1
1
1
1
1
1
1
1
1
1
1
1
1
1
1
1
1
1
1
1
1
1
1
1
1
1
1
1
1
1
1
1
1
1
1
1
1
1
1
1
1
1
1
1
1
1
1
1
1
1
1
1
1
1
1
1
1
1
1
1
1
1
1
1
1
1
1
1
1
1
1
1
1
1
1
1
1
1
1
1
1
1
1
1
1
1
1
1
1
1
1
1
1
1
1
1
1
1
1
1
1
1
1
1
1
1
1
1
1
1
1
1
1
1
1
1
1
1
1
1
1
1
1
1
1
1
1
1
1
1
1
1
1
1
1
1
1
1
1
1
1
1
1
1
1
1
1
1
1
1
1
1
1
1
1
1
1
1
1
1
1
1
1
1
1
1
1
1
1
1
1
1
1
1
1
1
1
1
1
1
1
1
1
1
1
1
1
1
1
1
1
1
1
1
1
1
1
1
1
1
1
1
1
1
1
1
1
1
1
1
1
1
1
1
1
1
1
1
1
1
1
1
1
1
1
1
1
1
1
1
1
1
1
1
1
1
1
1
1
1
1
1
1
1
1
1
1
1
1
1
1
1
1
1
1
1
1
1
1
1
1
1
1
1
1
1
1
1
1
1
1
1
1
1
1
1
1
1
1
1
1
1
1
1
1
1
1
1
1
1
1
1
1
1
1
1
1
1
1
1
1
1
1
1
1
1
1
1
1
1
1
1
1
1
1
1
1
1
1
1
1
1
1
1
1
1
1
1
1
1
1
1
1
1
1
1
1
1
1
1
1
1
1
1
1
1
1
1
1
1
1
1
1
1
1
1
1
1
1
1
1
1
1
1
1
1
1
1
1
1
1
1
1
1
1
1
1
1
1
1
1
1
1
1
1
1
1
1
1
1
1
1
1
1
1
1
1
1
1
1
1
1
1
1
1
1
1
1
1
1
1
1
1
1
1
1
1
1
1
1
1
1
1
1
1
1
1
1
1
1
1
1
1
1
1
1
1
1
1
1
1
1
1
1
1
1
1
1
1
1
1
1
1
1
1
1
1
1
1
1
1
1
1
1
1
1
1
1
1
1
1
1
1
1
1
1
1
1
1
1
1
1
1
1
1
1
1
1
1
1
1
1
1
1
1
1
1
1
1
1
1
1
1
1
1
1
1
1
1
1
1
1
1
1
1
1
1
1
1
1
1
1
1
1
1
1
1
1
1
1
1
1
1
1
1
1
1
1
1
1
1
1
1
1
1
1
1
1
1
1
1
1
1
1
1
1
1
1
1
1
1
1
1
1
1
1
1
1
1
1
1
1
1
1
1
1
1
1
1
1
1
1
1
1
1
1
1
1
1
1
1
1
1
1
1
1
1
1
1
1
1
1
1
1
1
1
1
1
1
1
1
1
1
1
1
1
1
1
1
1
1
1
1
1
1
1
1
1
1
1
1
1
1
1
1
1
1
1
1
1
1
1
1
1
1
1
1
1
1
1
1
1
1
1
1
1
1
1
1
1
1
1
1
1
1
1
1
1
1
1
1
1
1
1
1
1
1
1
1
1
1
1
1
1
1
1
1
1
1
1
1
1
1
1
1
1
1
1
1
1
1
1
1
1
1
1
1
1
1
1
1
1
1
1
1
1
1
1
1
1
1
1
1
1
1
1
1
1
1
1
1
1
1
1
1
1
1
1
1
1
1
1
1
1
1
1
1
1
1
1
1
1
1
1
1
1
1
1
1
1
1
1
1
1
1
1
1
1
1
1
1
1
1
1
1
1
1
1
1
1
1
1
1
1
1
1
1
1
1
1
1
1
1
1
1
1
1
1
1
1
1
1
1
1
1
1
1
1
1
1
1
1
1
1
1
1
1
1
1
1
1
1
1
1
1
1
1
1
1
1
1
1
1
1
1
1
1
1
1
1
1
1
1
1
1
1
1
1
1
1
1
1
1
1
1
1
1
1
1
1
1
1
1
1
1
1
1
1
1
1
1
1
1
1
1
1
1
1
1
1
1
1
1
1
1
1
1
1
1
1
1
1
1
1
1
1
1
1
1
1
1
1
1
1
1
1
1
1
1
1
1
1
1
1
1
1
1
1
1
1
1
1
1
1
1
1
1
1
1
1
1
1
1
1
1
1
1
1
1
1
1
1
1
1
1
1
1
1
1
1
1
1
1
1
1
1
1
1
1
1
1
1
1
1
1
1
1
1
1
1
1
1
1
1
1
1
1
1
1
1
1
1
1
1
1
1
1
1
1
1
1
1
1
1
1
1
1
1
1
1
1
1
1
1
1
1
1
1
1
1
1
1
1
1
1
1
1
1
1
1
1
1
1
1
1
1
1
1
1
1
1
1
1
1
1
1
1
1
1
1
1
1
1
1
1
1
1
1
1
1
1
1
1
1
1
1
1
1
1
1
1
1
1
1
1
1
1
1
1
1
1
1
1
1
1
1
1
1
1
1
1
1
1
1
1
1
1
1
1
1
1
1
1
1
1
1
1
1
1
1
1
1
1
1
1
1
1
1
1
1
1
1
1
1
1
1
1
1
1
1
1
1
1
1
1
1
1
1
1
1
1
1
1
1
1
1
1
1
1
1
1
1
1
1
1
1
1
1
1
1
1
1
1
1
1
1
1
1
1
1
1
1
1
1
1
1
1
1
1
1
1
1
1
1
1
1
1
1
1
1
1
1
1
1
1
1
1
1
1
1
1
1
1
1
1
1
1
1
1
1
1
1
1
1
1
1
1
1
1
1
1
1
1
1
1
1
1
1
1
1
1
1
1
1
1
1
1
1
1
1
1
1
1
1
1
1
1
1
1
1
1
1
1
1
1
1
1
1
1
1
1
1
1
1
1
1
1
1
1
1
1
1
1
1
1
1
1
1
1
1
1
1
1
1
1
1
1
1
1
1
1
1
1
1
1
1
1
1
1
1
1
1
1
1
1
1
1
1
1
1
1
1
1
1
1
1
1
1
1
1
1
1
1
1
1
1
1
1
1
1
1
1
1
1
1
1
1
1
1
1
1
1
1
1
1
1
1
1
1
1
1
1
1
1
1
1
1
1
1
1
1
1
1
1
1
1
1
1
1
1
1
1
1
1
1
1
1
1
1
1
1
1
1
1
1
1
1
1
1
1
1
1
1
1
1
1
1
1
1
1
1
1
1
1
1
1
1
1
1
1
1
1
1
1
1
1
1
1
1
1
1
1
1
1
1
1
1
1
1
1
1
1
1
1
1
1
1
1
1
1
1
1
1
1
1
1
1
1
1
1
1
1
1
1
1
1
1
1
1
1
1
1
1
1
1
1
1
1
1
1
1
1
1
1
1
1
1
1
1
1
1
1
1
1
1
1
1
1
1
1
1
1
1
1
1
1
1
1
1
1
1
1
1
1
1
1
1
1
1
1
1
1
1
1
1
1
1
1
1
1
1
1
1
1
1
1
1
1
1
1
1
1
1
1
1
1
1
1
1
1
1
1
1
1
1
1
1
1
1
1
1
1
1
1
1
1
1
1
1
1
1
1
1
1
1
1
1
1
1
1
1
1
1
1
1
1
1
1
1
1
1
1
1
1
1
1
1
1
1
1
1
1
1
1
1
1
1
1
1
1
1
1
1
1
1
1
1
1
1
1
1
1
1
1
1
1
1
1
1
1
1
1
1
1
1
1
1
1
1
1
1
1
1
1
1
1
1
1
1
1
1
1
1
1
1
1
1
1
1
1
1
1
1
1
1
1
1
1
1
1
1
1
1
1
1
1
1
1
1
1
1
1
1
1
1
1
1
1
1
1
1
1
1
1
1
1
1
1
1
1
1
1
1
1
1
1
1
1
1
1
1
1
1
1
1
1
1
1
1
1
1
1
1
1
1
1
1
1
1
1
1
1
1
1
1
1
1
1
1
1
1
1
1
1
1
1
1
1
1
1
1
1
1
1
1
1
1
1
1
1
1
1
1
1
1
1
1
1
1
1
1
1
1
1
1
1
1
1
1
1
1
1
1
1
1
1
1
1
1
1
1
1
1
1
1
1
1
1
1
1
1
1
1
1
1
1
1
1
1
1
1
1
1
1
1
1
1
1
1
1
1
1
1
1
1
1
1
1
1
1
1
1
1
1
1
1
1
1
1
1
1
1
1
1
1
1
1
1
1
1
1
1
1
1
1
1
1
1
1
1
1
1
1
1
1
1
1
1
1
1
1
1
1
1
1
1
1
1
1
1
1
1
1
1
1
1
1
1
1
1
1
1
1
1
1
1
1
1
1
1
1
1
1
1
1
1
1
1
1
1
1
1
1
1
1
1
1
1
1
1
1
1
1
1
1
1
1
1
1
1
1
1
1
1
1
1
1
1
1
1
1
1
1
1
1
1
1
1
1
1
1
1
1
1
1
1
1
1
1
1
1
1
1
1
1
1
1
1
1
1
1
1
1
1
1
1
1
1
1
1
1
1
1
1
1
1
1
1
1
1
1
1
1
1
1
1
1
1
1
1
1
1
1
1
1
1
1
1
1
1
1
1
1
1
1
1
1
1
1
1
1
1
1
1
1
1
1
1
1
1
1
1
1
1
1
1
1
1
1
1
1
1
1
1
1
1
1
1
1
1
1
1
1
1
1
1
1
1
1
1
1
1
1
1
1
1
1
1
1
1
1
1
1
1
1
1
1
1
1
1
1
1
1
1
1
1
1
1
1
1
1
1
1
1
1
1
1
1
1
1
1
1
1
1
1
1
1
1
1
1
1
1
1
1
1
1
1
1
1
1
1
1
1
1
1
1
1
1
1
1
1
1
1
1
1
1
1
1
1
1
1
1
1
1
1
1
1
1
1
1
1
1
1
1
1
1
1
1
1
1
1
1
1
1
1
1
1
1
1
1
1
1
1
1
1
1
1
1
1
1
1
1
1
1
1
1
1
1
1
2
2
2
2
2
2
2
2
2
2
2
2
2
2
2
2
2
2
2
2
2
2
2
2
2
2
2
2
2
2
2
2
2
2
2
2
2
2
2
2
2
2
2
2
2
2
2
2
2
2
2
2
2
2
2
2
2
2
2
2
2
2
2
2
2
2
2
2
2
2
2
2
2
2
2
2
2
2
2
2
2
2
2
2
2
2
2
2
2
2
2
2
2
2
2
2
2
2
2
2
2
2
2
2
2
2
2
2
2
2
2
2
2
2
2
2
2
2
2
2
2
2
2
2
2
2
2
2
2
2
2
2
2
2
2
2
2
2
2
2
2
2
2
2
2
2
2
2
2
2
2
2
2
2
2
2
2
2
2
2
2
2
3
3
3
3
3
3
3
3
3
3
3
3
3
3
3
3
3
3
3
3
3
3
3
3
3
3
3
3
3
3
3
3
3
3
3
3
3
3
3
3
3
3
3
3
3
3
3
3
3
3
3
3
3
3
3
3
3
3
3
3
3
3
3
3
3
3
3
3
3
3
3
3
3
3
3
3
3
3
3
3
3
3
3
3
3
3
3
3
3
3
3
3
3
3
3
3
3
3
3
3
3
3
3
3
3
3
3
3
3
3
3
3
3
3
3
3
3
3
3
3
3
3
3
3
3
3
3
3
3
3
3
3
3
3
3
3
3
3
3
3
3
3
3
3
3
3
3
3
3
3
3
3
3
3
3
3
3
3
3
3
3
3
4
4
4
4
4
4
4
4
4
4
4
4
4
4
4
4
4
4
4
4
4
4
4
4
4
4
4
4
4
4
4
4
4
4
4
4
4
4
4
4
4
4
4
4
4
4
4
4
4
4
4
4
4
4
4
4
4
4
4
4
4
4
4
4
4
4
4
4
4
4
4
4
4
4
4
4
4
4
4
4
4
4
4
4
4
4
4
4
4
4
4
4
4
4
4
4
4
4
4
4
4
4
4
4
4
4
4
4
4
4
4
4
4
4
4
4
4
4
4
4
4
4
4
4
4
4
4
4
4
4
4
4
4
4
4
4
4
4
4
4
4
4
4
4
4
4
4
4
4
4
4
4
4
4
4
4
4
4
4
4
4
4
5
5
5
5
5
5
5
5
5
5
5
5
5
5
5
5
5
5
5
5
5
5
5
5
5
5
5
5
5
5
5
5
5
5
5
5
5
5
5
5
5
5
5
5
5
5
5
5
5
5
5
5
5
5
5
5
5
5
5
5
5
5
5
5
5
5
5
5
5
5
5
5
5
5
5
5
5
5
5
5
5
5
5
5
5
5
5
5
5
5
5
5
5
5
5
5
5
5
5
5
5
5
5
5
5
5
5
5
5
5
5
5
5
5
5
5
5
5
5
5
5
5
5
5
5
5
5
5
5
5
5
5
5
5
5
5
5
5
5
5
5
5
5
5
5
5
5
5
5
5
5
5
5
5
5
5
5
5
5
5
6
6
6
6
6
6
6
6
6
6
6
6
6
6
6
6
6
6
6
6
6
6
6
6
6
6
6
6
6
6
6
6
6
6
6
6
6
6
6
6
6
6
6
6
6
6
6
6
6
6
6
6
6
6
6
6
6
6
6
6
6
6
6
6
6
6
6
6
6
6
6
6
6
6
6
6
6
6
6
6
6
6
6
6
6
6
6
6
6
6
6
6
6
6
6
6
6
6
6
6
6
6
6
6
6
6
6
6
6
6
6
6
6
6
6
6
6
6
6
6
6
6
6
6
6
6
6
6
6
6
6
6
6
6
6
6
6
6
6
6
6
6
6
6
6
6
6
6
6
6
6
6
6
6
6
6
6
6
6
6
6
6

</DataArray>
</CellData>
<PointData>
<DataArray type="Float64" Name="Displacement" NumberOfComponents="3" format="ascii">
-1.2298325617134079e-24 3.0109383074555837e-24 1.1992829313266502e-24 -1.1033402320157187e-01 6.9385099413278484e-01 1.0990600781733446e-01 -1.0966204651674580e-01 6.9437333141753033e-01 -1.1102426404732449e-01 -1.2562412910358418e-24 3.0692857083368584e-24 -1.2415471292387689e-24 1.1076075876199809e-01 6.9515742032559746e-01 1.1087357978520292e-01 1.1147988056576164e-01 6.9487609426446328e-01 -1.1038861796999234e-01 1.2003202833573883e-24 2.9952730455255470e-24 1.2184871257217450e-24 1.2417450158708849e-24 3.0684879473033079e-24 -1.2547715780070215e-24 -6.1020587574938542e-02 1.1099973577790678e-01 6.0798333509424846e-02 -8.5979544638926930e-02 1.9060153402428234e-01 8.3685211205437940e-02 -9.7547919734844127e-02 2.6864662623494262e-01 9.5982535605210959e-02 -1.0346876487847025e-01 3.4858834429490565e-01 1.0274950485825281e-01 -1.0639803160399244e-01 4.3109800691167716e-01 1.0597182000172266e-01 -1.0806293899830777e-01 5.1675004332774854e-01 1.0751541001444548e-01 -1.0896877690008852e-01 6.0476621634720396e-01 1.0860959348387721e-01 -1.0968418571257861e-01 6.9257406723204318e-01 -8.4234303977715072e-02 -1.0958161399600311e-01 6.9040413993437089e-01 -5.6979757523045252e-02 -1.0945376392882396e-01 6.8862652834157523e-01 -2.8945133316891736e-02 -1.0943729658035865e-01 6.8788733306058891e-01 -4.5954193907194217e-04 -1.0953234255319771e-01 6.8850054312422437e-01 2.7908852007276368e-02 -1.0987828584448824e-01 6.9014443573286133e-01 5.5876046897760649e-02 -1.1012596772221739e-01 6.9218377139397047e-01 8.3150626292816263e-02 -6.1366897098280047e-02 1.1125823786888360e-01 -6.1273594243594777e-02 -8.3232567834392798e-02 1.9235712791465273e-01 -8.4403801315041771e-02 -9.6362715653447020e-02 2.6984510298079134e-01 -9.7403092920472958e-02 -1.0299079642929772e-01 3.4879376264577161e-01 -1.0379165697579151e-01 -1.0591708437806084e-01 4.3129564906848161e-01 -1.0674455849325215e-01 -1.0711790818716692e-01 5.1725591140117655e-01 -1.0821266579615142e-01 -1.0833927164141301e-01 6.0537631700322991e-01 -1.0947044250588669e-01 -2.0884238870189915e-24 4.1759616023348521e-24 -3.1315585904421646e-25 -2.2084181957256753e-24 3.4887247729210068e-24 -1.5159936961536582e-25 -2.2250435458477000e-24 4.0736607478221282e-24 -6.1479648987067910e-26 -2.2348042366153877e-24 4.2163207342962317e-24 -3.7769827476710027e-26 -2.1884125989180847e-24 4.1719975031264110e-24 1.6351237535835880e-25 -2.2776816848339350e-24 4.8111894174339557e-24 1.7517803917070678e-25 -2.1447865067482034e-24 4.0493515719948096e-24 4.9158485220862716e-25 -8.3534396933996877e-02 6.9210094333651151e-01 1.0998732411658815e-01 -5.6204692503371609e-02 6.9022026401712322e-01 1.0985469484579523e-01 -2.8206209942584427e-02 6.8876206177901300e-01 1.0983337822302126e-01 2.8867114094375260e-04 6.8818234179630844e-01 1.0989530209180758e-01 2.8700840614249962e-02 6.8890738532440998e-01 1.1001419303912846e-01 5.6705637146647232e-02 6.9076002387863766e-01 1.1043742531686769e-01 8.4026411570596191e-02 6.9323635080363277e-01 1.1066602224038170e-01 1.1132329376577124e-01 6.9310830946989210e-01 -8.3564970352352871e-02 1.1099532150431195e-01 6.9098612779656110e-01 -5.6203276236958193e-02 1.1081299907176344e-01 6.8940650970445971e-01 -2.8334131721644926e-02 1.1074425127049635e-01 6.8876656153459093e-01 1.7682691154466133e-04 1.1072273536693844e-01 6.8939705605921486e-01 2.8676815128416040e-02 1.1083074197835707e-01 6.9093980503580010e-01 5.6592027314593139e-02 1.1093747480297751e-01 6.9327359049601189e-01 8.4148683766209015e-02 -8.2909132083848661e-02 6.9271850768635279e-01 -1.1087369240578401e-01 -5.5567976078220831e-02 6.9056440733260993e-01 -1.1061445154120580e-01 -2.7552121997747418e-02 6.8914909012842063e-01 -1.1041556905613284e-01 8.7553719519286937e-04 6.8853204164129911e-01 -1.1029736395746430e-01 2.9337469877872797e-02 6.8916067694549565e-01 -1.1022421098660196e-01 5.7479452731878239e-02 6.9099247134795772e-01 -1.1034885920975519e-01 8.4702145464723891e-02 6.9306467965787277e-01 -1.1043612609798707e-01 1.0922387637963346e-01 6.0599189950292587e-01 1.0936247334757919e-01 1.0804264374971455e-01 5.1773400345400367e-01 1.0826230763434062e-01 1.0637721606899141e-01 4.3197500562546215e-01 1.0689241683521382e-01 1.0332923514373960e-01 3.4926945162299211e-01 1.0346092762885578e-01 9.5897971074422023e-02 2.6921469598413994e-01 9.7033857367012741e-02 8.3587342199230405e-02 1.8935410090097501e-01 8.4792415749493907e-02 6.1548170335695727e-02 1.1011151541256516e-01 6.1005201797891338e-02 1.9830362754114880e-24 3.8351910689326626e-24 -2.7455844280141748e-25 2.1924251591057549e-24 4.2118353465876199e-24 -3.5112313011355569e-25 2.3625317373683776e-24 4.5593633684035383e-24 -2.2120642327058413e-25 2.3317620798433755e-24 4.2338597404668876e-24 -1.1063957136197850e-26 2.3659004933663301e-24 4.6485433275973759e-24 2.3250258855643870e-25 2.2426591497624595e-24 4.3787025531207740e-24 3.2467565244367898e-25 2.0551665418709853e-24 3.6072274892511024e-24 2.8236328565148761e-25 1.1004676731740271e-01 6.0584004373391576e-01 -1.0898977832593988e-01 1.0871387354973568e-01 5.1836322982255811e-01 -1.0775956170192981e-01 1.0692279862760391e-01 4.3294645518203095e-01 -1.0585796516709202e-01 1.0361912745847839e-01 3.4910704434107775e-01 -1.0297902398924491e-01 9.7530934915803877e-02 2.6931855364869817e-01 -9.8108477643604489e-02 8.4973573279781459e-02 1.9237599336847724e-01 -8.5338814941991178e-02 6.1251587669930767e-02 1.1146176602492168e-01 -6.1981267158094197e-02 4.6508463848726648e-25 3.9531502356656388e-24 2.0790080484364415e-24 2.1333228979014917e-25 4.2063119539635086e-24 2.1744005028284626e-24 2.3082015091098757e-25 4.7154096413939376e-24 2.4056311172149328e-24 1.8154224231746949e-26 4.1806923984778352e-24 2.3071270509817289e-24 -2.0965478015378692e-25 4.5951722283152880e-24 2.3967665717317287e-24 -3.7787971255763609e-25 4.4298420779948844e-24 2.3195452714661187e-24 -2.8572236722200747e-25 3.9053719959119780e-24 2.0292596730538572e-24 3.2485671935065061e-25 4.3155195795689396e-24 -2.1568888146873533e-24 2.2553677136523679e-25 4.6885937260453454e-24 -2.3999933209031807e-24 7.9945980119826312e-26 4.3422787025754172e-24 -2.2873620267430412e-24 4.1988901359380586e-27 4.0423240408030637e-24 -2.2307944640920644e-24 -2.0105646299071526e-25 4.5402978551837676e-24 -2.3084911612605778e-24 -2.5868902757076516e-25 3.8649939889541709e-24 -2.0806533198444563e-24 -2.8960442839577819e-25 3.9958971785101864e-24 -2.0438109113369859e-24 -1.0555600951177112e-01 3.8572942281947126e-01 8.2812002192581544e-02 -1.0535584076575724e-01 3.8562957725619423e-01 -8.3605946825724961e-02 -5.6250001533913914e-02 7.3622479165678364e-02 5.1590874514000282e-03 -1.0877081482292451e-01 6.0837932909275572e-01 1.3676364296247153e-02 -5.8176651928264086e-02 7.8274735519759414e-02 -1.1311204530428666e-02 -1.0862172838394230e-01 6.0563724649511363e-01 -3.8290995729689706e-02 -9.2173786041349640e-02 2.1677087573615156e-01 6.9601442734528646e-02 -9.2083092378328013e-02 2.1678589826325481e-01 -6.8716624168782131e-02 -1.0850615601615415e-01 5.5584487740211563e-01 8.5603584908322178e-02 -5.8482277819910791e-02 7.8315775410781843e-02 2.3111278733672604e-02 -1.0766328757966889e-01 5.5958634401558327e-01 -8.5850450405817721e-02 -1.0137429115179387e-01 3.0174747918974115e-01 7.8785548152232016e-02 -1.0453008774440475e-01 3.3875206938261415e-01 5.8959357422713229e-02 -1.0697989522812024e-01 4.2494727592584003e-01 6.0999430208650944e-02 -1.0663103259442261e-01 3.7906182092790575e-01 3.7228057399771260e-02 -1.0277187211035102e-01 2.9116131869783446e-01 3.4682541599945098e-02 -1.0583822786304660e-01 3.3328157134731173e-01 1.3726105492285220e-02 -1.0772391280065743e-01 4.2174849623975830e-01 1.4322421145785465e-02 -1.0692087297573061e-01 3.7671622528045134e-01 -9.1221241649965135e-03 -1.0347948469724880e-01 2.9076212590094164e-01 -8.0817959104169269e-03 -1.0528576199072573e-01 3.3537412778148118e-01 -3.0878662010786921e-02 -1.0755615121758157e-01 4.2272618660830835e-01 -3.2945807490901195e-02 -1.0033479391351351e-01 2.5016423899911450e-01 -2.8425926461414005e-02 -9.5283099809721286e-02 2.0663890038738456e-01 -7.2421554844249629e-03 -1.0254633749426789e-01 2.9543403043890709e-01 -5.1190994313018399e-02 -8.8382602026749621e-02 1.6857961023905077e-01 -2.3553776471696819e-02 -7.5854986370640712e-02 1.2346564292972341e-01 -5.1455446724567172e-03 -7.9672662518434842e-02 1.3945170429526541e-01 -3.5148218812513239e-02 -8.8038967263837975e-02 1.6388233440383179e-01 1.0129299553878089e-02 -7.3835825957325296e-02 1.1979496181917672e-01 2.0292069954374072e-02 -9.3641111130011584e-02 2.0096267629673248e-01 3.0450533962503839e-02 -8.5636598404385769e-02 1.6014011456510199e-01 4.1728641157521083e-02 -1.0809182250332229e-01 4.6647955504007227e-01 3.7810418988060812e-02 -1.0830569791810667e-01 5.1211713057097641e-01 1.4088995285672931e-02 -1.0836102988379645e-01 5.5490438853583646e-01 3.8239734640210681e-02 -1.0835032935596157e-01 5.5635400654620693e-01 -1.0706246627884410e-02 -1.0800938381501993e-01 4.6782758323611934e-01 -9.9045273306807187e-03 -1.0784248499263351e-01 5.1414531819512999e-01 -3.3805235517083400e-02 -1.0755384030825750e-01 4.6803697398795313e-01 -5.5723498513180592e-02 -1.0550678891722977e-01 3.8164238813372564e-01 -5.4379190908642641e-02 -1.0806462468762447e-01 5.1212942392601590e-01 6.1543903125335309e-02 -1.0886716821795607e-01 6.0864044145439233e-01 6.4959714336320543e-02 -1.0148835717560740e-01 3.0256057194363134e-01 -8.0825307050743547e-02 -1.0686225988667773e-01 4.7194722060269001e-01 -8.4952839802694538e-02 -1.0716189193602035e-01 4.7102351971361045e-01 8.4484600931852546e-02 -1.0000134245262285e-01 2.4623140660198223e-01 1.2337389232643813e-02 -9.8826242239630643e-02 2.5233297137480953e-01 5.3854327998865373e-02 -7.3679683710349581e-02 1.3472032989788429e-01 -5.3017222404856075e-02 -1.0874476336831511e-01 6.1799231865309590e-01 -6.8352704737783876e-02 -7.6020644684572466e-02 1.3629006585839679e-01 5.3928196439586427e-02 -5.0479185850491749e-02 6.7775569066700556e-02 -2.1813131780481058e-02 -9.4745890036719738e-02 2.1820929754630108e-01 -4.5685300127292716e-02 -1.0792500052053058e-01 5.4663199473509716e-01 -5.6061825791657652e-02 -4.4258347735407190e-02 5.7359613842380648e-02 -2.7644526950945103e-03 -1.0895762996423161e-01 6.2933145285291558e-01 4.0987031776317934e-02 -1.0879062308684481e-01 6.2954265084152528e-01 -1.4343608655684795e-02 -4.1307294309365208e-02 5.2407273090656153e-02 9.3017297990011794e-03 -1.0877671720907388e-01 6.2782471004073037e-01 -9.0365353620806457e-02 -4.6209660610085537e-02 6.5412066661801979e-02 3.0158890368419639e-02 -1.0930963081262911e-01 6.2746559128478996e-01 8.9358139004252254e-02 -4.8049137811236479e-02 6.7880199102416758e-02 -2.9860803057705880e-02 -1.0386079457440971e-01 3.4078458364454128e-01 -6.8270349719816201e-02 -1.0644611340966173e-01 4.2681955658763648e-01 -7.0401795725637858e-02 -9.9138350720449603e-02 2.6096761283357489e-01 -6.3383179428001299e-02 -1.0744749671217026e-01 5.0694587568055649e-01 -7.1470790241780713e-02 1.6696688874184459e-02 6.8695360822262086e-01 8.6041860007198948e-02 -8.6388536663595153e-02 6.8673934120279900e-01 -1.4839632086787263e-02 8.7756149833683517e-02 6.8741932467813172e-01 -1.4219318629348129e-02 1.7184440229381068e-02 6.8709298688678733e-01 -8.6327440290456581e-02 -8.6645981764119223e-02 6.8807318984415566e-01 4.2046830256459305e-02 8.8500684967545373e-02 6.8855159060345617e-01 4.2464980253664471e-02 -4.4073215395552028e-02 6.8818140651467641e-01 -8.6640106443535383e-02 -4.4480361099715988e-02 6.8800939985558129e-01 8.5931702425596765e-02 7.1097356399286618e-02 6.9049467319797242e-01 -8.4557706919165698e-02 7.0565106517356285e-02 6.8996508760298325e-01 8.4621267017342586e-02 -8.7011455728947598e-02 6.9006900096866264e-01 -7.0372495227199336e-02 -8.6525339998403936e-02 6.8785952264315764e-01 -4.2937248000577209e-02 -6.3030396404575320e-02 6.8593387169791709e-01 -2.8741477264186410e-02 -6.3177536655591782e-02 6.8524838151601686e-01 -3.9682610629355900e-04 -3.9046144358459108e-02 6.8391267301049896e-01 -1.4528862482624489e-02 -3.9137399466350489e-02 6.8386142421986051e-01 1.3962330723471491e-02 -1.4776691196478382e-02 6.8288339312761093e-01 -1.9435799618946532e-04 -1.4679405928627643e-02 6.8349345096556458e-01 2.8149233723187766e-02 9.9171846911880624e-03 6.8293124833674224e-01 1.4135249294432104e-02 1.0012281137845495e-02 6.8294339057541198e-01 -1.4429775336501695e-02 3.4601083104581834e-02 6.8367155149708314e-01 -1.1711660607762768e-04 3.4543686903371486e-02 6.8430013173679771e-01 -2.8436862506272847e-02 3.4407540543277222e-02 6.8414588860598713e-01 2.8313090468327865e-02 9.7999895491986660e-03 6.8407692771226347e-01 -4.1813332797790516e-02 -3.8469131221683966e-02 6.8506866452249104e-01 -4.1916965746269026e-02 -3.8646532014414495e-02 6.8496841813543596e-01 4.1265570452328530e-02 5.8697370163687972e-02 6.8524370677469992e-01 1.4174211731477747e-02 -1.4593500214861091e-02 6.8484090584042245e-01 5.5042937582967841e-02 3.2576681623141979e-02 6.8615691522021105e-01 -6.0105488693847492e-02 5.8716640832664174e-02 6.8638697644339997e-01 -4.2380474625970728e-02 5.7327296281735836e-02 6.8616587733374146e-01 4.2210526585652171e-02 3.2225852737072964e-02 6.8598847790199635e-01 6.0094877604447657e-02 5.8693274660996261e-02 6.8537964628289827e-01 -1.4177399162498093e-02 -6.3058642693698527e-02 6.8569863192657510e-01 2.7840472484045035e-02 -6.0739812348286966e-02 6.8733217169221439e-01 6.0108738123865829e-02 -8.7290443635223300e-02 6.8970772102214373e-01 6.9904188019620839e-02 8.8639231347547462e-02 6.8869472552168343e-01 -4.2213493992616202e-02 -6.0546407649156302e-02 6.8759808168099679e-01 -6.0742184221298623e-02 -1.4368247563757699e-02 6.8660180344679667e-01 8.2578978037296330e-02 8.7716291605607427e-02 6.8738011047095271e-01 1.4434542963827100e-02 -1.3996357637534783e-02 6.8683705490139479e-01 -8.3174846303224678e-02 4.3476782868651594e-02 6.8837500684833020e-01 8.6716830718163426e-02 4.4077954934968022e-02 6.8833188188691707e-01 -8.6762553648476057e-02 -8.6453991856821219e-02 6.8672368530306216e-01 1.3919275391442889e-02 -1.4534667203344896e-02 6.8339872336082574e-01 -2.8351278443576881e-02 -1.4283534939330881e-02 6.8482500110433009e-01 -5.4594355168192110e-02 9.9293719249132512e-03 6.8388639607536128e-01 4.2308240094378675e-02 9.1097935326530863e-02 6.9045970250104971e-01 6.9451321420227599e-02 9.1273397844192597e-02 6.9065291921192540e-01 -6.9070653032656568e-02 -6.9492714928620178e-02 6.9016295762462054e-01 -8.8492001662080697e-02 -6.9932475640818892e-02 6.9002797647163583e-01 8.7749629626268560e-02 5.5510846250825738e-02 6.8762009139319502e-01 6.6081968847030340e-02 5.6083398645728859e-02 6.8775855844203104e-01 -6.6033013946155697e-02 5.9597531205094461e-03 6.8552086503485643e-01 6.5318058015240557e-02 6.6487162368485805e-03 6.8560961332385506e-01 -6.5466358730691190e-02 -3.4610452520700934e-02 6.8631371127956420e-01 6.5121069845051713e-02 -3.4878831019786900e-02 6.8639647231705325e-01 -6.5607348440737678e-02 9.1796146569004339e-02 6.9227645694759332e-01 -9.0801420755456372e-02 -9.0594097019399369e-02 6.9140572287650481e-01 9.0392233432125782e-02 9.1241746490932737e-02 6.9228396603751385e-01 9.1152992967480168e-02 -9.0062315700033188e-02 6.9178774621794115e-01 -9.1309054639563972e-02 7.3387094352200796e-02 6.8633187646235794e-01 5.9504216558066569e-05 7.3241451304698710e-02 6.8672848273377507e-01 2.8465593109383239e-02 7.3351432851762044e-02 6.8683763788734342e-01 -2.8343720253946991e-02 7.3556255723867189e-02 6.8851491485847016e-01 -5.5992511891668720e-02 7.3357471244003825e-02 6.8840185231666640e-01 5.6132590333815527e-02 1.0057569300655800e-01 2.9656555819913899e-01 7.8297529838193519e-02 1.0201249892847343e-01 2.9737771210383451e-01 -7.7883699622594976e-02 1.0978211770494563e-01 6.1125836689676216e-01 1.4115810917792153e-02 5.5629160075457387e-02 7.5370848833251888e-02 4.5768952184943364e-03 1.0831949210659955e-01 4.8000016385723299e-01 -8.3747805132595193e-02 5.1444925617287189e-02 6.9875877340680570e-02 -1.2539908161504618e-02 1.0779841242198084e-01 4.7984212114867092e-01 8.4340265234717507e-02 1.0993143109362999e-01 6.1262915995381473e-01 -4.1574731050629206e-02 7.4184018911361713e-02 1.3321531120176450e-01 5.0820116876067578e-02 1.0957983535220647e-01 6.1636087805229256e-01 6.9147446610186722e-02 7.2542174039396431e-02 1.3228630609683598e-01 -4.9891983304593115e-02 1.0985883538013065e-01 6.1122470360452485e-01 -1.3737713066125978e-02 1.0926788984047621e-01 5.3348561640771741e-01 2.2340790538451984e-04 1.0911592874690747e-01 5.3437757348713899e-01 2.7858521062113391e-02 1.0858941926763990e-01 4.5687396846188977e-01 1.3949165784336120e-02 1.0862497109651094e-01 4.5679848845950299e-01 -1.3560480340583294e-02 1.0751514672525889e-01 3.8004810317782928e-01 1.6415049899731111e-05 1.0733096867128908e-01 3.8173429765657241e-01 -2.6491770793325382e-02 1.0520574402588816e-01 3.0595983080354416e-01 -1.2266259333583511e-02 1.0525177967153888e-01 3.0555204265512276e-01 1.2707110565185973e-02 9.9078135509614959e-02 2.3264225264533384e-01 3.9940242393314313e-04 9.8664694149932605e-02 2.3229688433220816e-01 2.2211378958738103e-02 9.8297249925166627e-02 2.3335327752262325e-01 -2.1724579067943815e-02 1.0479703536026246e-01 3.0945544036325628e-01 3.8088522295190837e-02 1.0836852687629499e-01 4.5692247449986806e-01 4.0379776631491011e-02 1.0858640334460309e-01 4.5725325636315894e-01 -3.9931608523545041e-02 8.6656295439423062e-02 1.6082310895635385e-01 -8.3778540340244158e-03 1.0663862291895507e-01 3.8392354992923750e-01 -5.1933384876677938e-02 9.7656137748945090e-02 2.4300557305050050e-01 4.9924122730547631e-02 8.5693572217080863e-02 1.6194193870277648e-01 2.5905044591269570e-02 8.6917857087494430e-02 1.6624815493204584e-01 -2.6182583846480315e-02 9.7624057393408792e-02 2.4474843707723457e-01 -4.9121417107807978e-02 1.0944375304906145e-01 5.3414244470746108e-01 -2.7319151130541289e-02 1.0929830368060080e-01 5.2906339753318066e-01 -5.8883666427114324e-02 1.1005557236237359e-01 6.1640367729649459e-01 -6.9026248140388310e-02 1.0417301321311720e-01 3.0897441583265267e-01 -3.7958636295856121e-02 1.0577482433043310e-01 3.8705520663034115e-01 7.9511572221204599e-02 5.5866575237041652e-02 7.5590010091005425e-02 -3.5644568091665876e-03 1.0553317844259590e-01 3.8789290201957433e-01 -7.8588790578992693e-02 1.0872402139037442e-01 5.2933899844714971e-01 5.9218241140414039e-02 1.0727202352204193e-01 3.8130800589489816e-01 2.6691872978992247e-02 9.3686924406678501e-02 2.1757583342961739e-01 -7.1712968208610228e-02 1.0972233828484632e-01 6.1165322638019781e-01 4.2661057051199262e-02 9.1132403632255304e-02 2.1706766184688603e-01 7.0673460396477913e-02 5.0391863175607170e-02 6.9563347869053854e-02 1.2451598867405931e-02 8.7028443328975524e-02 1.6233803691390314e-01 8.8280979223300249e-03 1.0654320900798633e-01 3.8342063339040522e-01 5.1658614934634264e-02 4.8122182834755049e-02 6.0162088754760895e-02 -2.1225692553236891e-02 4.8037866500457937e-02 6.1119470863562585e-02 2.0143297984503542e-02 1.0873540330242133e-01 5.6112807652104735e-01 8.6666790917207068e-02 1.0950667285465128e-01 5.6080287060848810e-01 -8.6376358238417161e-02 8.8070381973134909e-02 1.7404241774033630e-01 -4.6520120921084082e-02 8.6768288269826230e-02 1.7326350190913400e-01 4.6661454436820342e-02 1.0380713652456421e-01 3.2192259387496819e-01 6.0465864620490466e-02 1.0413077984405425e-01 3.2365038235016086e-01 -5.9919513930998133e-02 1.0793285246317828e-01 4.4717344506593648e-01 -6.2848637434146246e-02 1.0732171261280148e-01 4.4848662986010507e-01 6.3403438467367304e-02 4.9061208083738130e-02 6.8219866990325825e-02 -3.1610466804450545e-02 4.6296387595038471e-02 6.7757465738252573e-02 2.9728064469604139e-02 1.0971203457856907e-01 6.2861610342030150e-01 9.0181966655932477e-02 1.1039354032891238e-01 6.2835552982318688e-01 -8.9758568780121881e-02 7.4617221258005503e-02 1.1792089583259149e-01 -7.2471329145437527e-04 7.4341407865529147e-02 1.1820357160211217e-01 1.3374754810926644e-02 7.4265080643329109e-02 1.1885610706098725e-01 -1.2410091399555071e-02 7.2802608263350735e-02 1.1641675818908943e-01 2.7734281910574417e-02 7.3083248207666401e-02 1.1685620240033086e-01 -2.7854958755395790e-02 2.2514372317383989e-25 3.9009737160017969e-24 8.3444548016435470e-25 1.6188199666401595e-25 5.4225609335696301e-24 -9.3479438427048486e-25 7.2555719459652940e-25 5.6796276276495627e-24 9.7331907935756541e-26 -1.2821404795520541e-24 5.4706666763573179e-24 -5.1851838517629289e-26 -1.6346859990827789e-24 5.7055286641675481e-24 3.4254879627130223e-25 1.1075094163822775e-24 4.8962463472505865e-24 -2.8851612701385815e-25 -6.1690819315732064e-25 5.8745966790487211e-24 -1.1883389889715703e-24 8.3728757745400103e-25 6.1731145499571645e-24 1.3864272576656610e-24 -1.0640581167058561e-24 6.1838449999662091e-24 -6.0112925774301871e-25 8.0926715646130319e-25 5.3201614090535593e-24 6.7853478238503329e-25 -7.4874481521448620e-25 5.8383206059662294e-24 1.0099963248052038e-24 9.3457632825065555e-25 5.5379665229531424e-24 -9.4265795702228981e-25 2.7860372382759229e-26 5.3523875436199078e-24 -9.0395611672732416e-25 2.5785389545380795e-25 4.9776213216733814e-24 -4.8076197543564809e-25 2.7919632685516654e-25 4.8427429505996103e-24 -6.9403976605407910e-25 -2.3260455400675066e-25 5.3625777863848735e-24 -5.0981717311740535e-25 7.3098713185859331e-26 5.9214572073090339e-24 -4.4707034574976092e-25 1.8658263497754488e-25 5.2370890075465622e-24 3.7670294026077189e-26 3.5513862751602565e-25 4.5065458150099574e-24 1.6331121923869847e-25 -1.5345635486971188e-25 4.7170135179712914e-24 5.5052296100152510e-27 1.5768282055186028e-25 5.3186030218710794e-24 -1.0683533381330021e-25 1.7568678535637328e-25 5.6667184483667823e-24 1.9933021992497643e-25 2.0216698153314619e-25 5.2943508402135454e-24 4.0972942602344164e-25 -3.5872850677409302e-25 5.5537381794439016e-24 8.8708603087575780e-25 -8.0171455754457289e-25 5.4410847947230043e-24 -8.1897312496588270e-26 2.4659907534145023e-25 3.5536787717559600e-24 -6.2776626868358185e-26 -1.6455082679422422e-25 4.8082758565259831e-24 8.0514073399791982e-26 2.8522894853847584e-25 3.9150538297765409e-24 2.2655737597484882e-25 3.5851474583176263e-25 5.0615049658111321e-24 3.5130610111581815e-25 9.3825405837149742e-25 7.5630185457565933e-24 5.7825593304587050e-25 -5.4002451553158694e-25 5.9335813900867983e-24 -5.4512744731445726e-26 -5.7489706074563454e-25 6.1326004470034648e-24 3.2904972600732148e-26 -8.3013508681575471e-25 5.8263489045971653e-24 -4.2678645376648289e-25 -6.7627054092674614e-25 5.2390961559429694e-24 -4.6610914286176307e-26 -8.8198832225544242e-25 4.6623448443019173e-24 -9.8422538229310104e-25 -1.4036764290617885e-25 5.4846284541922691e-24 -6.1446653030679843e-25 -1.5725158318943056e-25 4.0476906366265296e-24 6.5531825207291082e-25 -2.5200311673719382e-25 3.8228619282985403e-24 1.0053828543630329e-24 -2.0031732378019416e-25 4.8304430788473254e-24 -1.4487932929046215e-25 7.4892818771256237e-25 5.1268892726458671e-24 1.0437182804883295e-25 9.9024355225329910e-25 4.5755382191474333e-24 -3.4250284437338588e-25 1.0761460555247964e-24 5.4509325009213946e-24 3.1369501793615035e-25 5.6778684620967383e-25 4.1061675849924356e-24 -3.2893198057238088e-26 3.4296718059039226e-25 4.6315895652378686e-24 -7.4532005019534995e-25 -6.3522805987880633e-25 4.1190017541927029e-24 2.0405666785915707e-25 3.0324211433328517e-26 4.7391446809359705e-24 -1.0933230300067361e-24 4.7489195673479635e-25 4.5759093313768215e-24 5.5009265967142852e-25 -3.8995752000945310e-25 4.5802419683158405e-24 5.6117577011135490e-25 1.0438851144770740e-24 5.6485720748935693e-24 -7.3678684828815353e-25 -5.4140003028523325e-25 5.3586015224604123e-24 -9.9315203364795953e-25 3.5498333444932012e-25 6.0114190755678314e-24 -7.4359858001890801e-25 -1.8666380483727809e-25 4.9148145086171128e-24 -9.5148502689309340e-26 -9.3187707980818529e-25 4.5414896704160560e-24 5.4175672332114661e-25 5.1337974728721342e-25 4.9854134336611180e-24 1.0176555515202977e-24 -4.9502255875544298e-25 3.7133996499907063e-24 1.7015186665034113e-26 -3.4884547088446960e-25 3.8929247618524283e-24 -4.9499530069458112e-25 5.9006847708338554e-25 3.2018471670429020e-24 -4.1602981991151903e-25 -8.1484511489729526e-25 3.3724813953983077e-24 6.1620650985178789e-25 5.0756701531063262e-25 3.6173385542415678e-24 6.5351352894901050e-25 -5.5178644975913348e-25 3.2354015113622261e-24 -5.6803633131178272e-25 2.5315895906161899e-25 3.7455001466733427e-24 -4.3604563362431238e-26 2.8492272831097194e-25 2.7500687481409661e-24 1.7496942445727098e-25 -1.4260200435700465e-25 3.3799917767873279e-24 8.3419546604787840e-26 -1.1353094288092490e-26 3.7589045102630282e-24 1.0207993122313065e-24 -3.1689055413724252e-25 3.0549899537864478e-24 3.9398055071107604e-25 4.9175348016951758e-25 3.4529895811878475e-24 2.6339515000291449e-25 1.4767407164237214e-02 6.1104747626919731e-01 -1.0937848693670735e-01 -7.7868603884355764e-02 2.9623913831870757e-01 -1.0142584883772868e-01 3.9165934440136985e-03 6.6831057618658513e-02 -5.0377615374423569e-02 8.3072334731209008e-02 3.8769320254151068e-01 -1.0460794891208172e-01 -8.3231711955515139e-02 4.7953843493868037e-01 -1.0788546840870560e-01 -1.1644299698567135e-02 6.9751384986899923e-02 -5.0273897604689442e-02 6.9599618113885361e-02 2.2686188945988495e-01 -9.4091803679183447e-02 -4.0918832886406346e-02 6.1220820599290005e-01 -1.0964738005351420e-01 6.8926057672684463e-02 6.1669297482436980e-01 -1.0936364020624410e-01 -4.8727615286688869e-02 1.3265511810716701e-01 -7.3725673111539144e-02 2.3143113458783299e-02 7.2460265621862349e-02 -5.3389387927647081e-02 -6.8095375166762243e-02 6.1592207869059545e-01 -1.0963942251024392e-01 -5.8307792341127589e-02 5.2926183752661682e-01 -1.0859284965714192e-01 -2.7653256540141665e-02 5.3288730163692755e-01 -1.0901252985645150e-01 -4.0272877087996768e-02 4.5826631408687574e-01 -1.0830157053572964e-01 -1.3153187949588582e-02 4.5629642172220297e-01 -1.0837903806151306e-01 -2.6083928240259104e-02 3.8103751337095426e-01 -1.0696542660301542e-01 7.3428399424127499e-04 3.7962313535776770e-01 -1.0719322186299005e-01 -1.2132342163660988e-02 3.0579565681514892e-01 -1.0480676811874121e-01 1.2938391240514676e-02 3.0508763654071075e-01 -1.0457163408904059e-01 2.7646217168297661e-02 3.8085178948736903e-01 -1.0695339327134404e-01 -8.4417537917571856e-04 2.3341101095672070e-01 -9.8829873397859536e-02 -2.2498049533738827e-02 2.3303391016987249e-01 -9.8751659339315956e-02 2.2369864522380635e-02 2.3049624135853944e-01 -9.7574870612601936e-02 -9.2777288242210602e-03 1.6813411838724604e-01 -8.8535721643880141e-02 -5.1762319918478197e-02 3.8391766262002547e-01 -1.0632550543312494e-01 -2.7658218635695390e-02 1.6809005594940876e-01 -8.6989024312907254e-02 -5.0025760674336402e-02 2.4300758652370752e-01 -9.8314100198235957e-02 1.3577307662583657e-02 7.0768846080728351e-02 -5.3087236545833395e-02 3.5616248972551126e-02 1.4718013921406101e-01 -8.2856923746254516e-02 1.5695459591478451e-02 1.4201185729001223e-01 -8.2436695322370315e-02 -4.3364516327317436e-03 7.0437898976143609e-02 -5.3843520668197524e-02 1.4473996946300218e-02 4.5644756397021313e-01 -1.0824654508490819e-01 4.1864602562942992e-02 4.5834887829847365e-01 -1.0830946142939089e-01 5.4768698824048001e-02 3.8427127543258671e-01 -1.0636594028628969e-01 6.8527435387513366e-02 4.6198268727527314e-01 -1.0742350964132363e-01 6.4381575213413117e-02 3.0787385680000334e-01 -1.0241299698852947e-01 3.8853787625852336e-02 3.0668648717013003e-01 -1.0333273935909791e-01 4.7185668685601825e-02 2.3422287856712387e-01 -9.7241418209861263e-02 -7.8616072969538001e-02 3.8647576535215217e-01 -1.0605603599069613e-01 -6.9356428696642367e-02 2.1814965438515752e-01 -9.2387381192215345e-02 -3.7691417372580464e-02 3.0756712636325395e-01 -1.0443375567728673e-01 4.2363564970140315e-02 6.1261441221549429e-01 -1.0931941911566437e-01 -1.3243014838559178e-02 6.1081862540087672e-01 -1.0952916780200420e-01 6.2179850591522401e-04 5.3286981446037418e-01 -1.0895357593993958e-01 2.8529775363008030e-02 5.3425645882424011e-01 -1.0885921577396400e-01 5.5604397512705260e-02 5.3678060550667994e-01 -1.0860419564545028e-01 8.4902485289688009e-02 5.4848343653656850e-01 -1.0837484430350040e-01 -2.0072589987902293e-02 6.4079070512223293e-02 -4.8136391109635863e-02 -8.5613513823103907e-02 5.6055064929684739e-01 -1.0872057592460141e-01 5.3318329596665819e-02 1.3548732189977516e-01 -7.5629507727145356e-02 -4.4813530683938459e-02 1.7530292198568381e-01 -8.6856894227512527e-02 -5.9945082592693634e-02 3.2296879865395478e-01 -1.0442095461561827e-01 9.0635121719807268e-02 4.7227566848084568e-01 -1.0721710548274743e-01 -6.2592557039379368e-02 4.5089758986637868e-01 -1.0759974886945635e-01 8.5363168952563490e-02 3.0417355138757068e-01 -1.0152278514746854e-01 5.2078382044044866e-03 1.7244912365196494e-01 -8.9599867196389377e-02 -3.1190791114191520e-02 6.8887600134620572e-02 -5.0242127481135698e-02 9.0802005473957462e-02 6.2833491485810489e-01 -1.0935916775411561e-01 2.9897787161488363e-02 6.8602438162886789e-02 -4.8604548594762868e-02 -8.9129095864089139e-02 6.2798575530180289e-01 -1.0992560110788493e-01 3.0313296965491891e-02 1.8824404017932081e-01 -9.1218619713356972e-02 -1.2225001528100594e-02 1.1685971035839481e-01 -7.3820028247949296e-02 3.4105301377895851e-04 1.1714766824624764e-01 -7.2839158930696146e-02 -2.7227403728608011e-02 1.1802502272305682e-01 -7.0244385131674941e-02 1.4129549405424742e-02 6.1075421107987204e-01 1.0913666633392459e-01 -3.6598433587542649e-03 7.5395718993501934e-02 5.3619218841324257e-02 -8.2502804867088400e-02 3.9164268272997482e-01 1.0553731591068087e-01 7.8501949668928775e-02 3.0136072797628632e-01 1.0140796411298497e-01 8.2671271093070348e-02 4.5958394028095745e-01 1.0782422374439428e-01 -7.0099919177801021e-02 2.1197639639534491e-01 9.1244244919145970e-02 -4.1552922197109356e-02 6.1450149438748436e-01 1.0902120673425583e-01 1.2618870943904218e-02 7.0630318601072620e-02 5.2255009701196446e-02 6.9238703488347070e-02 6.1475611892284299e-01 1.0951242571104182e-01 5.4177833679146088e-02 1.4504468348894092e-01 7.7539090838414454e-02 -2.4262387200753275e-02 6.8507226744034200e-02 5.2128949709521123e-02 -8.2860384799782250e-02 5.5934126430073350e-01 1.0803653820693380e-01 -1.3372161117513078e-02 7.2691496159297014e-02 5.2496907276117229e-02 -1.6078093155584974e-02 1.4487091230357294e-01 8.1410628195043827e-02 -6.8467130079006427e-04 1.4544309197327568e-01 8.1630741869578874e-02 -1.1884906463782237e-02 2.1440340442446273e-01 9.7568206878740696e-02 1.0483030873007821e-02 2.1395250037577268e-01 9.7653151620785791e-02 -4.0127628558523341e-04 2.8768859091250093e-01 1.0372914885974525e-01 -2.5269306890794603e-02 2.8848712138281224e-01 1.0318846989062780e-01 -1.3537931698257927e-02 3.6184092989764943e-01 1.0727301822889190e-01 1.3076553473575144e-02 3.6231163899276447e-01 1.0736046428279929e-01 -2.9352971271468278e-05 4.3769347742121395e-01 1.0791999488280601e-01 -2.7313372262620865e-02 4.3865040722977577e-01 1.0809981582201869e-01 2.7064691580062968e-02 4.3903969732774656e-01 1.0819494379132936e-01 3.9546296611704675e-02 3.6408872385475805e-01 1.0662436807578166e-01 -1.3788749567869992e-02 5.1482123069912011e-01 1.0863574781210805e-01 5.4266497512068954e-02 4.4153222264461339e-01 1.0792674866211896e-01 4.1014050484228105e-02 5.1279626145806290e-01 1.0842912912060342e-01 -4.1024891604881680e-02 5.1239810927928675e-01 1.0822391037691902e-01 -5.8283086602103497e-02 4.3560367471069755e-01 1.0735626408582609e-01 6.6052333194533741e-02 3.7187645290110932e-01 1.0569157903509727e-01 4.9472625449149446e-02 2.9160418905945779e-01 1.0278406774769173e-01 5.6393768763186899e-02 2.2077992277242547e-01 9.4325077612566283e-02 3.4101781824395501e-02 2.1268418265466296e-01 9.6015200813560200e-02 3.5039634615254715e-02 1.4371637477170587e-01 7.9131849641392166e-02 1.5828033476063461e-02 1.4349749682974686e-01 8.1918561886757266e-02 -3.3186361113565536e-02 2.1803211634853112e-01 9.6904931076945880e-02 -4.9482559241930062e-02 2.9308666192564781e-01 1.0246551309104744e-01 -1.3722340493085187e-02 6.1057058292168076e-01 1.0906744935188398e-01 -3.8421066781668789e-02 1.5247813122498283e-01 8.2960014656421763e-02 -4.0102105037991061e-02 3.6388499114870254e-01 1.0621629704927461e-01 -8.4362470632213166e-02 4.7340555248539234e-01 1.0742874949319432e-01 2.4981254069235594e-02 2.8749060394508363e-01 1.0360548304386283e-01 -7.5829855105692276e-02 3.0032969114803659e-01 1.0089299392391406e-01 4.1936724279350780e-02 6.1205670048510696e-01 1.0923213758199990e-01 3.3643044616444499e-03 7.5127067654111063e-02 5.5189756770629171e-02 1.3913916056005676e-02 5.1502909638604144e-01 1.0875599573420437e-01 8.6516049982368601e-02 5.5606088111541208e-01 1.0872039318319004e-01 -5.5026120022733507e-02 1.3336603217207890e-01 7.4496012018757218e-02 -6.8110540483200185e-02 6.2470578854868108e-01 1.0905000018410382e-01 2.2409290398339662e-02 7.3565759301594688e-02 5.3796522259604629e-02 -6.4200739671576565e-02 5.0919411195550701e-01 1.0800073583628887e-01 6.5377241948481962e-02 5.1401603102938065e-01 1.0839357510199134e-01 8.8219782201136909e-02 3.8806394942164074e-01 1.0592045245342875e-01 -6.1637928917292882e-02 3.5635658047443419e-01 1.0509044110663121e-01 -5.4592800034501558e-02 2.3377803414270953e-01 9.6315621476982902e-02 7.5191707035393698e-02 2.2218115832991805e-01 9.1847496423612451e-02 9.0046366786968868e-02 6.2859699523799162e-01 1.0960289912907711e-01 -3.0429155404144950e-02 6.7921722755375127e-02 4.7069235482187340e-02 -8.9736736665642317e-02 6.2737268257969026e-01 1.0894567897768068e-01 3.0929640146462493e-02 6.4943898080805681e-02 4.7478976009824647e-02 -2.7549407940519265e-02 5.6309489653365419e-01 1.0868055571356613e-01 2.7820270742462089e-02 5.6332156977658521e-01 1.0891163024932203e-01 1.1733456061909299e-04 5.6244019354261188e-01 1.0870457586834519e-01 5.3026398005667982e-02 5.6535491962895490e-01 1.0871070652390975e-01 -5.4832650084948233e-02 5.6556327578764320e-01 1.0861491475668890e-01 1.0113620091827689e-04 3.1774038863211113e-01 6.4666698367548301e-05 3.5151205181230799e-02 2.1295875834101816e-01 -3.5433561101500428e-02 3.9889300225734094e-02 4.5817608510408248e-01 4.1031958751657417e-02 -3.2394910071467081e-02 1.9204658827634716e-01 -3.2927918141955087e-02 -4.0799343510841780e-02 4.5495931276135876e-01 -4.0091557921766094e-02 -3.1327631085299672e-02 1.8674525696414909e-01 3.1297233113629662e-02 4.1931121467812110e-02 4.3778678326365578e-01 -4.1402851670825337e-02 -3.9504986666322559e-02 4.5468868440458887e-01 4.1240554445816070e-02 3.2509777271735069e-02 1.8640064955379013e-01 3.1306790742458811e-02 5.4226950968811347e-02 3.1936829855308368e-01 1.0073308032692942e-05 4.8850816731724053e-03 1.3935988549743031e-01 -1.4511048856551334e-03 -8.0220339529215223e-04 3.2143281535177087e-01 -5.3830068475194753e-02 1.6243002565075075e-03 5.0473587827278810e-01 -9.5695961303203568e-05 3.2416086560930666e-04 3.2629706309221818e-01 5.4273056442867153e-02 -5.3751501006224174e-02 3.2303952547266213e-01 -1.1943632679964798e-03 5.9794386074960050e-02 5.2317299935798134e-01 -1.5499326105076620e-03 9.8160857186289550e-04 1.3162511437815724e-01 -3.9666074092757457e-02 1.8230319871349206e-03 5.1988139708211323e-01 -5.9643409635334509e-02 -5.7189415754671888e-02 3.2466876513345427e-01 5.7864823095187250e-02 -5.8830418498870878e-02 3.3079098391171180e-01 -5.8625425393522550e-02 -1.3331511708208332e-04 5.2472165256236269e-01 6.1847415766251329e-02 -1.0313100214877984e-03 1.1948996304515450e-01 3.7164403898916828e-02 3.9566731884073697e-02 1.3166212912545430e-01 -1.9872831111639876e-03 -6.1669609088803097e-02 5.2079880462293771e-01 9.0146839440340847e-04 5.7081025108360224e-02 3.2846317528867469e-01 5.8461166839367987e-02 -4.5901568147408860e-02 1.4882045002209701e-01 5.8913045529439224e-05 3.9883815066675259e-02 1.1946615502817245e-01 -3.7488530178698992e-02 6.0925107037773929e-02 3.3301433119221363e-01 -6.1736135390599425e-02 6.4304216029955855e-02 5.4858176487343768e-01 6.7377101404685849e-02 6.5952466640544452e-02 5.4564277136500305e-01 -6.4115475275860534e-02 -6.5704011230366566e-02 5.4569237651494806e-01 6.6447922916322802e-02 -3.7752239877649411e-02 1.1817028087045194e-01 -3.8043960780012730e-02 4.0059638751473566e-02 1.1844286802032314e-01 3.6564690101923085e-02 -6.9217899418416717e-02 4.6231635532848814e-01 -6.8784483387854159e-02 -2.1087504649748547e-02 1.0056603225670468e-01 3.7582775720307320e-02 -1.4092686864097705e-02 9.5314437199033694e-02 6.6415334927694154e-03 -6.6558415817766453e-04 2.1857794376687339e-01 2.4509081590565310e-02 -5.7275475937036933e-02 1.9646474421762350e-01 5.5225051744841422e-02 -2.3836522550442000e-02 2.1838630046925994e-01 -2.8400176089337461e-03 -3.9537963708541589e-02 5.5273358465777989e-01 -7.0556174058474849e-02 1.4673898456156912e-02 9.3772028347866368e-02 -1.6561926772920999e-02 -7.0317991509646141e-02 5.5520602230506000e-01 -4.0160582178324473e-02 -3.0124258688528867e-02 3.1224739525339557e-01 2.9919432657116798e-02 -3.1474958072482545e-02 4.2776764570215969e-01 -1.3901640561283103e-03 7.2042670309685183e-02 4.1788551646444988e-01 2.2219797917111265e-02 -2.6624894224365060e-03 4.2312121933722752e-01 -3.1237913039007886e-02 -2.7215401109703847e-02 5.6066328316134506e-01 -2.2455717010149746e-02 2.8660885021720591e-02 4.1040884672001116e-01 5.2067511283995331e-03 2.7334755616682530e-02 3.0530814239342768e-01 2.7376074703702395e-02 6.3494883314007405e-04 4.3082610319303793e-01 3.2751268774070225e-02 -2.7402466432862781e-02 5.6041513041693125e-01 2.2243995651667351e-02 2.7150517470888452e-02 3.2049734333060087e-01 -2.6390605177430086e-02 -1.8636748517538174e-02 2.3639138332959383e-01 6.5352211417922856e-02 -3.7900824400608178e-02 1.0010935147164665e-01 1.9715002675395932e-02 -1.0418472435616557e-02 9.2745984439941101e-02 -1.4004043523523009e-02 -2.2504068411289824e-02 4.1864453244337640e-01 -7.2552312650147513e-02 2.9837333202341744e-03 2.1616621361417229e-01 -2.8215210993161745e-02 2.3591732056193356e-02 1.6392073156547454e-01 -5.5911558671315864e-02 -3.2332296593743447e-02 3.2714206791382322e-01 -3.2311521241455650e-02 2.6919606548332291e-02 5.5215257435130427e-01 -2.9174357283888404e-02 -7.1404107097930089e-02 3.9917842018987310e-01 2.6593866589325530e-02 7.3303690401171476e-02 4.1450522182496613e-01 -2.0466562197061819e-02 -6.5884679124360357e-02 2.5819683080676897e-01 2.5337802252993421e-02 6.8567301620849286e-02 2.7772917298985988e-01 -2.8056215867158348e-02 2.7315914017618907e-02 2.8314749611000162e-01 -6.7181908962915995e-02 1.9847978501639333e-02 4.1792610411178016e-01 -7.2464819311811327e-02 1.5719544571776208e-02 2.2590286354534353e-01 6.3806418563796485e-02 2.8623993374050808e-02 3.9510063176440385e-01 7.1877340167271486e-02 -6.6182468245369941e-02 2.6196825044602440e-01 -2.6505904253740668e-02 -7.2030951202147295e-02 4.2266849990732974e-01 -2.0186171739035627e-02 2.0375559181741502e-02 5.6194505005911222e-01 3.0397716264983752e-02 -2.6905323462550070e-02 2.6611648349455552e-01 -6.8703327462183827e-02 2.9390695688259392e-02 2.2165555392009637e-01 -6.1964806849487955e-03 -2.8953947987683911e-02 3.9184568179441343e-01 7.2335119551839161e-02 1.6431156705656761e-02 8.8425143917242752e-02 9.6734722844561902e-03 6.6951551798001732e-02 2.6137741511751683e-01 2.6494241800610521e-02 -7.3380146719843928e-02 4.3201607014042392e-01 7.4151924599421978e-02 3.1957646348860676e-02 5.7527293436907490e-01 -7.5355152469624251e-02 -3.1517261765779417e-02 5.7279468871273886e-01 7.3859812829544957e-02 1.3051983389403833e-02 9.4820028267664253e-02 4.1458117380318280e-02 7.4118694566630630e-02 5.6427619127636985e-01 3.1516327468586895e-02 -1.3516193794290868e-02 9.0567413833835278e-02 -3.8319961919552899e-02 -7.4802555940491150e-02 5.7868182353866382e-01 -7.6004667036321596e-02 7.3214923390006389e-02 4.3907913499404516e-01 5.7844798231277743e-02 -6.4675667499478756e-02 2.3469646308825237e-01 -6.6975958404376701e-02 5.4988202110309629e-02 4.4082588933117067e-01 -7.5872425278778147e-02 3.8233006285666400e-02 8.8652985034847212e-02 -1.3930353478058724e-02 -2.7413536753697867e-02 8.5541183854328282e-02 -1.3364617030741748e-02 3.5753489790832697e-02 8.7366644550934222e-02 1.2581359505840552e-02 5.4565800687967417e-02 2.2817237404283203e-01 -6.5826786722613648e-02 3.1902108539604832e-02 5.1033067828963741e-01 7.5700742595834938e-02 4.5611099496658092e-02 2.2296175453329228e-01 6.6384887524834901e-02 7.6544258086183009e-02 5.7051032962436354e-01 -3.0704841575673662e-02 -7.5782394376580242e-02 5.1483491217869526e-01 3.3519710665710252e-02 -3.7665526940530450e-02 8.6980357394993643e-02 3.4970788767356029e-02 7.8118951118504268e-02 4.5150531871620286e-01 -5.2068983483152489e-02 8.1762591753227823e-03 7.3425114145564699e-02 -3.4111731455815586e-02 9.8111702040336746e-04 2.2878055413359988e-01 -6.7517486861087925e-02 6.8251080758280999e-02 2.2926697934767942e-01 -1.2511875806805277e-03 -2.1661269008042112e-04 7.6114207508860762e-02 1.2490058480259707e-02 5.5832231802869906e-02 1.7991843337474747e-01 -2.9963588855642785e-02 -1.7504188118991096e-04 4.3400609649308752e-01 7.7055921302526406e-02 1.7750637143930940e-02 5.9405288898617803e-01 -1.0333320507189586e-04 -5.9858244609165785e-02 1.6672013374930958e-01 -2.8089697188318188e-02 -5.3671958431213522e-02 5.9091116887122486e-01 4.0448587714092689e-02 -7.4323330928821360e-02 2.3901523535167460e-01 -1.1966862731124970e-03 8.3128675789178097e-02 5.9208893691475228e-01 1.1727132731300131e-04 -9.2673651484299052e-03 7.0023371036367785e-02 1.5805857160123286e-02 -6.1476572225360390e-04 7.3071781772123631e-02 3.5394866786747275e-02 -7.9340476601675008e-02 3.9712963872887680e-01 -4.7734249944125638e-02 6.8211268946807878e-04 5.8282949161292341e-01 -8.3851849406981496e-02 3.7035690005093776e-02 7.1287597850566278e-02 -5.6739810314405091e-04 -1.0850456038081274e-03 5.8817908058011870e-01 -3.7593187794671572e-02 4.5045172871716631e-02 5.9275636743903715e-01 1.4324128743963436e-02 -8.2219244286563672e-02 5.9682017101480989e-01 -3.6119457426655880e-04 -4.4255862049033326e-02 4.8220709467510814e-01 7.9075789466295288e-02 -6.1123704989845236e-03 5.9846836977663653e-01 4.0982278519080234e-02 -3.8050506089292162e-02 3.0961852788922967e-01 7.9952766407006576e-02 1.9293272731984109e-02 5.9872108793070578e-01 7.0872569813614117e-02 7.5134001165704067e-02 2.7086820680228996e-01 6.3384129732810213e-02 4.3332476482804347e-02 5.9433236773102249e-01 5.0428812600725972e-02 -1.2621471732217636e-02 1.4845616804427300e-01 6.1874901397009012e-02 -4.9535898223857552e-02 3.9747529122403280e-01 -7.9471923704868941e-02 -2.3979256891965279e-03 6.3572431540368721e-02 8.3584950568177182e-05 -7.7987086895608015e-02 3.4109457738527033e-01 7.8714211127770828e-02 5.4394136528930673e-02 3.5303038053674640e-01 -3.5472876620445730e-02 1.7600211349214464e-02 7.2094680491735952e-02 1.9964574254319092e-02 -3.2725076142999583e-02 1.7902690517437903e-01 -6.4002453874851581e-02 -4.4222503788483331e-02 5.9869859699143790e-01 -2.9176750072305337e-04 6.8090334563991148e-02 1.9142480944184037e-01 3.7589061824030851e-02 3.4633008809699800e-02 3.0374931027641172e-01 7.7556331961310843e-02 8.1930021984071719e-02 3.4163396246172789e-01 8.5992930778878082e-03 8.4311010395283159e-02 4.7502255801922305e-01 1.0290758141446835e-04 3.0803340329103302e-02 5.0916557748986635e-01 6.1558238226798725e-03 -1.9934938957987040e-02 6.4672525406046871e-02 6.1172407399206683e-04 -8.5040296147978547e-03 3.4214688312885444e-01 -8.1764665757342508e-02 -7.7980758135922632e-02 3.2743789151268671e-01 -7.8391119696608988e-02 -8.3059018015701994e-02 4.5813056356663523e-01 5.4907494672736369e-03 -8.0486487350068178e-03 3.1521307913515456e-01 8.1043791548661925e-02 8.0393617168251552e-02 3.5129338762736162e-01 4.0190237668789909e-02 1.5904192414811721e-02 6.7229532942129924e-02 -2.7393672673111848e-03 5.7097206089890232e-02 4.0410259307024937e-01 8.0529992776810555e-02 -8.0247235887379822e-02 3.3492942129015441e-01 -1.2898244615751285e-02 9.6393226388766338e-04 6.5248307715589857e-02 -1.6052279418710017e-02 6.0205232161130915e-04 4.7809035512556092e-01 -8.4867963878248812e-02 1.5948955055016978e-02 6.5345723942149048e-02 -2.3560286557155665e-02 2.2874093318592737e-02 4.5810914148946097e-01 -2.0157955078384190e-02 3.5741893845817080e-02 7.2431437159489714e-02 -3.2608288981604248e-02 3.2668529576584539e-02 3.5612824260516951e-01 -5.3384062095567703e-02 2.3242074962064860e-02 9.7539464043301230e-02 -4.9138318767925813e-02 -8.2216599861916831e-02 3.7696293537756514e-01 5.1348459460132993e-02 4.7533914759396938e-02 6.0360857666420042e-01 -5.2487891525174531e-02 4.9936036373369845e-02 3.6979389312204236e-01 3.6215066437038305e-02 -5.6176751164436307e-03 3.0254073337807086e-01 -2.6281409531487235e-02 8.2142340031269023e-02 3.6166945601553552e-01 -3.9605619981624512e-02 8.0261898013733277e-02 4.9133714761830477e-01 -8.1989495706212182e-02 -3.7796820502037859e-03 4.1176779164847593e-01 4.7925493748504572e-03 8.3133708744662624e-02 6.0136081542320585e-01 -8.2161435210200598e-02 -4.0791387967776919e-03 3.3730513353563718e-01 2.7093888189585028e-02 -2.6857072425298213e-02 3.3361151657821880e-01 -5.3697536073676437e-03 -4.1948525652648859e-02 8.5611643696473103e-02 4.8255665271131187e-03 1.8315557386677676e-02 1.8279388403724575e-01 1.3222093049896638e-02 -1.1110933799466902e-02 5.8941092747120960e-01 -4.6560893577581432e-04 2.0736066736455668e-02 3.8067257985655895e-01 4.5141586938591188e-02 -3.4633838410143745e-02 1.8698064248545443e-01 6.6988020259419065e-02 4.8213932416325675e-03 2.2877260792636317e-01 -4.9433111804126446e-03 -1.6464106702723226e-02 2.5068540505634179e-01 -4.3270544676397911e-02 1.4473492940272977e-02 1.9924920813305075e-01 -4.5681298950547407e-02 3.8903697821931288e-02 3.6523384781773166e-01 -8.1950152759725781e-02 -2.7711407512346839e-02 5.9991326040470438e-01 -4.9487187202285066e-02 8.4558518216453188e-02 6.0535844321995225e-01 5.6840220547587340e-02 2.6654023351383168e-02 3.0864556321771719e-01 4.1738515684026201e-04 6.5511262617051966e-02 1.7132535592434806e-01 1.4389033547787184e-02 -7.9189395284722172e-02 2.8333650842699643e-01 4.8483433093221576e-02 -6.5153338229713822e-02 1.7147500218310030e-01 1.6490324980533096e-02 -1.0852867102384060e-02 1.4239995180532092e-01 2.2310632481317705e-02 5.1546269529485336e-02 5.9360764174145875e-01 -1.9350527563185796e-02 -5.5439265350040257e-03 5.8816460668678372e-01 8.3623784232620971e-02 7.8071130919581996e-02 3.9755282805051101e-01 -7.9192162911714145e-02 4.3090281983439789e-02 2.4746613191341454e-01 1.4521381549894930e-02 -5.9557238749818352e-02 3.4680814417454459e-01 -3.1530135000897089e-02 6.2502294615235807e-02 1.9033093089238545e-01 6.6179084877407771e-02 3.6447349320395311e-02 7.0796643210073340e-02 3.1254592197855237e-02 4.5004778339650102e-02 5.9133055771151377e-01 8.2480461433463173e-02 7.8279437303872032e-02 2.7839831454139458e-01 -5.1947961854287059e-02 6.5383359986241063e-03 1.5253358926113506e-01 6.4753725328900932e-02 5.5995942055652621e-02 4.3084285806398820e-01 2.6473691649834950e-04 -3.1268839335530938e-03 6.8564287593931905e-02 -3.5868574922200643e-02 -8.4227538239594002e-02 5.1030732341212948e-01 -1.8781557786224982e-02 -9.5393446039510593e-03 1.5964202965548804e-01 -6.2889569240404383e-02 -4.7747873087867869e-02 2.3192836470641690e-01 5.9552952467832035e-03 -4.5366255545979201e-02 3.8110967300652615e-01 1.7691359361717247e-02 2.0037121390747353e-02 6.3158565260405919e-02 3.5176427211957906e-02 -2.5297919748827044e-02 5.3133235778883059e-01 4.8981099518828092e-02 -3.3697752560734477e-02 6.6741533203481807e-02 -1.7415332687561860e-02 2.9134495696776456e-02 4.9510872189710153e-01 -6.0261137490108835e-02 -8.2722467108014910e-02 6.0272761785095608e-01 8.2500910060238783e-02 -1.8680582571693510e-02 6.4109650042345270e-02 -3.3569656286087650e-02 -8.2938083398548898e-02 5.9568800036583036e-01 4.8739878157777694e-02 -3.7595811174759207e-02 7.3795658424901184e-02 -3.7370342886151132e-02 8.5939510703934949e-02 6.1027124556396106e-01 -5.5035587673140325e-02 
</DataArray>
<DataArray type="Float64" Name="vonMises" NumberOfComponents="1" format="ascii">
4.7668889215315161e+09 4.9872050470368776e+09 4.9883342360378141e+09 6.1046938456091337e+09 4.9855585339110994e+09 4.9898208581737146e+09 6.0212686632803268e+09 4.9752057379055023e+09 6.0284057867209539e+09 4.4073167767969837e+09 4.3629443817807302e+09 4.6336438334998159e+09 4.6336438334998150e+09 4.8050701591553249e+09 4.9907776418799324e+09 4.9927039744715958e+09 5.0066415583419571e+09 5.0351505043067074e+09 5.0633785463136435e+09 5.0447818662090025e+09 5.0447818662090025e+09 4.9872050470368776e+09 6.1046938456091337e+09 4.3272333044702625e+09 4.4208855153321705e+09 4.4208855153321695e+09 4.8257145057330809e+09 4.9407790122806721e+09 4.9837514608060589e+09 4.9666183331499901e+09 4.4930227232199793e+09 4.2657099603449602e+09 4.3968744490562248e+09 4.4533422099420710e+09 4.4533422099420710e+09 4.7668889215315161e+09 4.9896151964856472e+09 5.0104156161287708e+09 5.0422188008741636e+09 5.0547728035941038e+09 5.0547728035941038e+09 5.0089749951804590e+09 5.0011795620604830e+09 4.9917554681828108e+09 5.0150924125227127e+09 5.0325355771861916e+09 5.0579280384908266e+09 5.0339392935556755e+09 5.0198270653003626e+09 4.9881729884084616e+09 4.9883342360378141e+09 5.0403300011156082e+09 5.0403300011156082e+09 5.0564559839789362e+09 5.0564559839789371e+09 5.0495445192055655e+09 4.9916294747710838e+09 4.9496920376934986e+09 4.9496920376934986e+09 4.8390718756092472e+09 4.6996480706548414e+09 4.4352785787416067e+09 4.4352785787416067e+09 6.0212686632803268e+09 4.9960808586343174e+09 4.3725500468012638e+09 4.3069099424915686e+09 4.4538090005777168e+09 4.4538090005777168e+09 4.4018045824261827e+09 4.4179649538583460e+09 4.9898208581737146e+09 4.7921441014928446e+09 4.7921441014928446e+09 4.4767233801246271e+09 4.4767233801246271e+09 4.5195256843483152e+09 6.1088119528501501e+09 4.7898872552700615e+09 4.6717536849610014e+09 4.2564278749030728e+09 4.4448853633803587e+09 4.3194184620419912e+09 4.3084670199841719e+09 4.9124999139728403e+09 4.9752057379055023e+09 4.3008676735964622e+09 4.3008676735964622e+09 4.2501904961195846e+09 4.4410982680820131e+09 4.5427665374881821e+09 5.0511317214574718e+09 4.6336438334998159e+09 4.6669104788364782e+09 4.2985886925526953e+09 5.0354398917263336e+09 4.2657099603449602e+09 5.0351505043067074e+09 4.3629443817807302e+09 4.5883376023208761e+09 4.9770425288219805e+09 4.6588842052466230e+09 4.9407790122806711e+09 4.4738449101419468e+09 4.7299596994093685e+09 4.8314254974244566e+09 4.8314254974244556e+09 4.7299596994093685e+09 4.7856404810947428e+09 4.9497124599064302e+09 4.7901980726326733e+09 4.6672790267328634e+09 4.7901980726326733e+09 4.9881179151911869e+09 4.6456520075977316e+09 4.6791545145434561e+09 4.8605973506994925e+09 4.5757773840672197e+09 4.3776478985645437e+09 4.7515067076895618e+09 4.5641305320289001e+09 4.6588842052466221e+09 4.5706529537229462e+09 4.5386061158382959e+09 4.9740438431670094e+09 4.9497124599064302e+09 5.0059539397459860e+09 4.9832137406683741e+09 4.9832137406683741e+09 4.9463611308967390e+09 4.9881179151911869e+09 4.8605973506994925e+09 4.9770425288219814e+09 5.0059539397459860e+09 4.5883376023208761e+09 4.8257145057330799e+09 4.9091763396664820e+09 4.6791545145434561e+09 4.7299596994093676e+09 4.7515067076895618e+09 5.0066415583419571e+09 4.4073167767969828e+09 4.4930227232199793e+09 4.5757773840672207e+09 4.9788608003127747e+09 4.3968744490562267e+09 5.0447818662090025e+09 5.0351505043067083e+09 4.6588842052466221e+09 4.9927039744715958e+09 4.7668889215315161e+09 4.9872050470368786e+09 6.1046938456091328e+09 4.8605973506994925e+09 4.8629448756228476e+09 4.7681944140238409e+09 4.9478638646757593e+09 5.0547728035941029e+09 5.0351505043067083e+09 5.0602058417155771e+09 5.0564559839789362e+09 5.0447818662090025e+09 5.0461086951999426e+09 5.0403300011156082e+09 5.0234897133653879e+09 5.0438829848555899e+09 5.0011795620604839e+09 5.0066415583419571e+09 5.0354617626527166e+09 5.0787564302653370e+09 5.1177677016936121e+09 5.1177677016936121e+09 5.1177677016936121e+09 5.1194454244927950e+09 5.1221006115033350e+09 5.1485667836112337e+09 5.1485667836112337e+09 5.1165291263150196e+09 5.0925436122482061e+09 5.0957911401549807e+09 5.1242740725139904e+09 5.0787564302653379e+09 5.0943058912955160e+09 5.0832522854849701e+09 5.1221006115033350e+09 5.0883386379730663e+09 5.0883386379730663e+09 5.0563171119264841e+09 5.0693478065835428e+09 5.0878811887146416e+09 5.0877095772366877e+09 5.0234897133653879e+09 5.0122130364869699e+09 5.0373851187867489e+09 5.0787564302653370e+09 5.0627389555124035e+09 5.0579280384908276e+09 5.0581064866810284e+09 5.0461593741397343e+09 5.0285939963143988e+09 5.0537820890689449e+09 5.1041804578425760e+09 5.1012900033234549e+09 5.1221006115033350e+09 5.0006216916673307e+09 5.0373851187867489e+09 5.0164777892630091e+09 5.0375434783084335e+09 5.0910899390114584e+09 5.0285939963143988e+09 5.0693478065835428e+09 5.0674976853331900e+09 5.0589250216517429e+09 5.1012900033234549e+09 4.9916294747710848e+09 4.9872050470368786e+09 5.0075032828080664e+09 4.9883342360378141e+09 5.0821029073424139e+09 5.0563171119264841e+09 5.0821029073424139e+09 5.0373851187867489e+09 5.0662184747815161e+09 4.6996480706548405e+09 4.7080846964820471e+09 5.0579280384908276e+09 4.4538090005777159e+09 4.7921441014928446e+09 4.4003703373215189e+09 4.8390718756092463e+09 5.0325355771861906e+09 4.6768338371785412e+09 5.0006216916673317e+09 4.8022604361390676e+09 5.0602058417155771e+09 4.9729737698880987e+09 4.9969346718997717e+09 4.9729737698880987e+09 4.9729737698880987e+09 4.8762712167344990e+09 4.8261757218651142e+09 4.7924092475376272e+09 4.8762712167344990e+09 4.5012782160175943e+09 4.4117331652619171e+09 4.7043216413507204e+09 4.8373017682318735e+09 4.9074487460457630e+09 4.8907889744649954e+09 4.3086371758823929e+09 4.8261757218651142e+09 4.7281244455422602e+09 4.6380302096485281e+09 4.5100033300021734e+09 4.9242795959991446e+09 5.0335415916871872e+09 4.9950704987526503e+09 4.9771564682713938e+09 4.7219523539250364e+09 4.8390718756092482e+09 4.1882511436979990e+09 4.6948165080866833e+09 4.9926948418660498e+09 4.8373017682318735e+09 4.7080846964820461e+09 5.0339392935556765e+09 4.4352785787416067e+09 4.2679949771187205e+09 4.5073459705423002e+09 4.8373017682318735e+09 4.2624876281275401e+09 4.4179649538583460e+09 4.9496920376934977e+09 4.9771564682713938e+09 4.8862837428946552e+09 4.6380302096485281e+09 4.7281244455422602e+09 4.7219523539250374e+09 4.7966199268239412e+09 4.9323038980141344e+09 6.1088119528501501e+09 6.0212686632803268e+09 5.0006216916673307e+09 4.9898208581737146e+09 4.5073459705423002e+09 4.5073459705422993e+09 4.2800765375013800e+09 4.8623495356213865e+09 4.8907508639539213e+09 3.2618130438272815e+09 4.2501904961195841e+09 4.4538090005777159e+09 4.3968744490562267e+09 3.5674742935382228e+09 4.2624876281275401e+09 3.4613455349435682e+09 4.2564278749030733e+09 4.4930227232199793e+09 4.4179649538583460e+09 4.3084670199841719e+09 3.7402238617299318e+09 4.4410982680820141e+09 2.8472815067539091e+09 3.0225405928800240e+09 2.8472815067539091e+09 3.1613535134823780e+09 2.8138593527134976e+09 2.8573652686861157e+09 2.8138593527134976e+09 2.8138593527134976e+09 2.8736560309522200e+09 3.0400370249082475e+09 2.8736560309522185e+09 3.4191819064395714e+09 3.0400370249082484e+09 3.5674742935382228e+09 2.8736560309522185e+09 3.3782182233526707e+09 3.0400370249082456e+09 3.3027348377225842e+09 2.9191388220196872e+09 3.3490773897785006e+09 3.0431384050535874e+09 3.4613455349435673e+09 3.1613535134823771e+09 4.4448853633803577e+09 4.3194184620419912e+09 2.9191388220196867e+09 3.2957778660744395e+09 3.2957778660744395e+09 3.6487349559559975e+09 3.7363572569908223e+09 3.0225405928800244e+09 2.8736560309522185e+09 4.3008676735964642e+09 3.6990459913512502e+09 4.6913552780345612e+09 4.2624876281275396e+09 4.5427665374881821e+09 3.1940425730062547e+09 2.8573652686861157e+09 3.5062412697445030e+09 4.0506328269280028e+09 4.2985886925526953e+09 4.2657099603449597e+09 4.9752057379055023e+09 4.7668889215315161e+09 3.6990459913512502e+09 4.9666183331499920e+09 2.8573652686861157e+09 3.3782182233526702e+09 2.8736560309522185e+09 3.2618130438272815e+09 3.5062412697445030e+09 3.0225405928800240e+09 5.0564559839789362e+09 4.5799970116423025e+09 4.2532129057543540e+09 4.6948165080866823e+09 4.8257145057330799e+09 4.3461984314107342e+09 4.6308877310067463e+09 5.0403300011156082e+09 4.9745160305615788e+09 4.7930926194887838e+09 4.3619134624638891e+09 5.0164777892630091e+09 4.9666692031074533e+09 5.0010160592855091e+09 4.8814431649719095e+09 4.9735761889459133e+09 4.8442484141098537e+09 4.8442484141098537e+09 4.8442484141098537e+09 4.7788081441953897e+09 4.8429656020046167e+09 4.6266571555906487e+09 4.6238791194522247e+09 4.8236603248602972e+09 4.5188566699064875e+09 4.8814431649719095e+09 4.6082706088926258e+09 4.6238791194522247e+09 4.5138928608133869e+09 4.8518867351759653e+09 4.5138928608133869e+09 4.2964521131755819e+09 4.9735761889459124e+09 4.8749056560948095e+09 4.8429656020046167e+09 4.8972379238778210e+09 4.6778802078900146e+09 4.8429656020046167e+09 4.7410275326962824e+09 4.6901339331611643e+09 4.5883376023208761e+09 4.9742819505987768e+09 5.0495445192055655e+09 5.0581064866810284e+09 4.9735761889459124e+09 5.0076276504251728e+09 4.9193240733260183e+09 4.9074101713334036e+09 4.4549636460537500e+09 4.9407790122806711e+09 4.5195256843483143e+09 4.6875203182751474e+09 4.9614263767617788e+09 4.7921441014928446e+09 4.8814431649719095e+09 4.7080846964820471e+09 4.6097759358136053e+09 6.1046938456091318e+09 4.9898208581737146e+09 4.9752057379055023e+09 4.9883342360378132e+09 4.7913801092553816e+09 4.4848270861372366e+09 4.2532129057543535e+09 4.7342758607249527e+09 5.0547728035941029e+09 4.4072908544093380e+09 4.6336438334998159e+09 4.6996480706548405e+09 4.8390718756092463e+09 4.3629443817807302e+09 5.0422188008741627e+09 4.2564278749030738e+09 4.9792736971970348e+09 4.7637684884339981e+09 4.3084670199841709e+09 4.9282339098279266e+09 4.3194184620419912e+09 4.2924390373060732e+09 4.3484071281318178e+09 4.7909653068658915e+09 4.3484071281318169e+09 4.7713944836008387e+09 4.7440433753443079e+09 4.7536242594807711e+09 4.8222957792579041e+09 4.9491218306878195e+09 4.9393855314507656e+09 4.9383738179519434e+09 4.8668286272685480e+09 5.0381135100655336e+09 4.8517837085497131e+09 5.0048066764561348e+09 5.0046161941081085e+09 4.9393855314507656e+09 4.8776584171801538e+09 4.8668286272685480e+09 4.7294057117728872e+09 4.6218441400312176e+09 4.9469072383433170e+09 4.3484071281318178e+09 4.7266539060156860e+09 4.9420254616821985e+09 5.0627389555124035e+09 4.7266539060156860e+09 4.7440433753443079e+09 4.9597784648575754e+09 4.7763215297744532e+09 4.6855738495644083e+09 5.0461593741397343e+09 4.4448853633803577e+09 4.9772931778033209e+09 4.9496920376934977e+09 4.4073167767969828e+09 5.0104156161287699e+09 4.6717536849610004e+09 4.9597784648575754e+09 4.9792736971970348e+09 4.7511547826253805e+09 4.6855738495644083e+09 4.8625459884232912e+09 4.4352785787416067e+09 5.0011795620604839e+09 4.9124999139728403e+09 4.9907776418799314e+09 6.0212686632803278e+09 5.0303677602863922e+09 4.9908314526009655e+09 5.0499539575293894e+09 4.9657897343891401e+09 5.0303677602863922e+09 5.0419844753918037e+09 4.5181684908504324e+09 5.0537867003204660e+09 4.5875410714023914e+09 5.0899836734364367e+09 4.1598016502643919e+09 5.0637241640371590e+09 5.0268120824779081e+09 4.8957741395470781e+09 5.0038637200524759e+09 4.3784986164446878e+09 4.9748799634084511e+09 5.0994501055586519e+09 5.0796479304936981e+09 5.0050874562823639e+09 5.0670234210182333e+09 4.5004742946815939e+09 5.1031660929502707e+09 4.9472433442590799e+09 4.9614263767617788e+09 5.0400042570580435e+09 4.7646897803054981e+09 4.4590909643925791e+09 5.0335487816186972e+09 5.0156526287262564e+09 4.8222046170450478e+09 4.5181684908504324e+09 4.9224411356099424e+09 4.9792736971970339e+09 5.0253565379102020e+09 4.9597784648575754e+09 4.6875203182751474e+09 4.7743174594458017e+09 4.9289088747016306e+09 4.4916504253646812e+09 3.4191819064395738e+09 4.7264717573907433e+09 4.9420254616821985e+09 4.9794993704024477e+09 4.9937009030781832e+09 3.7363572569908257e+09 5.0719282436617041e+09 5.0253269264463625e+09 5.0738582718207579e+09 5.0382454844800138e+09 5.1068117170187645e+09 5.0926974619812326e+09 5.0419844753918037e+09 5.0419844753918028e+09 5.0796479304937000e+09 5.0943058912955160e+09 5.0637241640371609e+09 4.7646897803054972e+09 3.5674742935382228e+09 3.1613535134823766e+09 4.9471537865015736e+09 4.9748799634084511e+09 4.7913801092553835e+09 5.0457658633340578e+09 5.1031660929502707e+09 5.0268120824779091e+09 5.0234423709648771e+09 4.8547065373549767e+09 4.9224411356099434e+09 4.9972289850413942e+09 5.0674199179584074e+09 4.7646897803054972e+09 5.0181458217639008e+09 4.9794993704024467e+09 5.0335487816186972e+09 5.1134402784391794e+09 4.9614263767617788e+09 4.3784986164446878e+09 4.9056100656938133e+09 2.9211976041731572e+09 5.0156526287262564e+09 5.0297710553065214e+09 5.0834325700379248e+09 5.0303677602863894e+09 4.4634934118873482e+09 5.0563171119264841e+09 4.4848270861372366e+09 4.9648843327383394e+09 4.9972297627477827e+09 4.5883376023208733e+09 4.9180890867986612e+09 3.7363572569908252e+09 4.3965102444243650e+09 4.0506328269280057e+09 4.7080846964820461e+09 5.0640896931176052e+09 4.7743174594458017e+09 5.0335415916871910e+09 5.0268120824779091e+09 4.6588842052466211e+09 4.9267463574467020e+09 4.6097759358136024e+09 4.9511440249243889e+09 4.9283746938318520e+09 3.9122741067854924e+09 4.5181684908504324e+09 5.0400042570580435e+09 5.1485667836112356e+09 4.3965102444243660e+09 5.0766424708773069e+09 4.6791545145434561e+09 5.0821029073424101e+09 3.4191819064395738e+09 3.2618130438272815e+09 4.8513272349147835e+09 5.0834325700379210e+09 4.5267969198286705e+09 5.1031660929502687e+09 5.0583084306473532e+09 5.0354398917263308e+09 5.0303677602863922e+09 5.0943058912955151e+09 4.9420254616822023e+09 5.0693478065835428e+09 4.8772170799136925e+09 5.0910899390114584e+09 4.6719866072010641e+09 4.9614263767617788e+09 2.8138593527134991e+09 4.9420254616822014e+09 5.0637241640371590e+09 3.3782182233526707e+09 4.4848270861372366e+09 5.1177677016936150e+09 4.6380302096485281e+09 4.8668286272685509e+09 4.8762712167344980e+09 4.9729737698880959e+09 5.1134402784391794e+09 3.4191819064395733e+09 4.8442484141098509e+09 4.8605973506994925e+09 4.9497124599064322e+09 4.7909653068658915e+09 4.8373017682318735e+09 3.7363572569908247e+09 4.8668286272685509e+09 4.7901980726326742e+09 3.1613535134823766e+09 4.9735761889459105e+09 3.8181696793459892e+09 5.1031660929502707e+09 4.2624876281275363e+09 5.0637241640371590e+09 4.7913801092553825e+09 5.0268120824779091e+09 5.0883386379730673e+09 5.0156526287262564e+09 4.9748799634084530e+09 4.8261757218651133e+09 4.8972379238778219e+09 5.1050833686427660e+09 5.0285939963143950e+09 5.0803130429885550e+09 4.9794993704024496e+09 3.5674742935382228e+09 4.3784986164446878e+09 5.1437543476320333e+09 5.0796479304936981e+09 4.8770312913384542e+09 4.7197009448770771e+09 4.9748799634084511e+09 4.7123745156421299e+09 4.8429656020046186e+09 5.0787564302653360e+09 5.0563171119264841e+09 5.0419844753918066e+09 4.5073459705422983e+09 4.7299596994093676e+09 4.6791545145434561e+09 3.9122741067854929e+09 5.0821029073424110e+09 5.0400042570580435e+09 4.8284872545924406e+09 5.0156526287262564e+09 5.0249918806048269e+09 4.7743174594458017e+09 4.4179649538583479e+09 4.9792736971970348e+09 4.8862837428946543e+09 4.7646897803054972e+09 5.0585088454100180e+09 4.3461984314107351e+09 4.9881179151911898e+09 4.6097759358136024e+09 4.9794993704024496e+09 5.0738582718207579e+09 4.7743174594458017e+09 5.0943058912955160e+09 3.3490773897785025e+09 5.0674199179584084e+09 4.9597784648575754e+09 4.4848270861372366e+09 5.0059539397459860e+09 4.8625274817974663e+09 5.0373851187867460e+09 
</DataArray>
</PointData>
</Piece>
</UnstructuredGrid>
</VTKFile>
